! Created with skrf 2.0.1 (http://scikit-rf.org).
# Hz S RI R 50.0 
!freq ReS11 ImS11 ReS12 ImS12 ReS13 ImS13
! ReS14 ImS14
! ReS21 ImS21 ReS22 ImS22 ReS23 ImS23
! ReS24 ImS24
! ReS31 ImS31 ReS32 ImS32 ReS33 ImS33
! ReS34 ImS34
! ReS41 ImS41 ReS42 ImS42 ReS43 ImS43
! ReS44 ImS44
!
500000.0 0.999923864136806 -0.009680623128084879 -9.289042192183902e-06 0.0009249433598678198 4.2712452693123425e-05 0.004377839884108747 4.271245269312145e-05 0.004377839884108916
 -9.289042192183897e-06 0.00092494335986782 0.9999238641368058 -0.009680623128082707 4.2712452693120213e-05 0.004377839884108896 4.271245269312026e-05 0.004377839884109243
 4.271245269312339e-05 0.004377839884108743 4.2712452693120213e-05 0.004377839884108897 0.9999263695938028 -0.009460580929905905 -1.179449918884609e-05 0.0007049011616888393
 4.271245269312141e-05 0.0043778398841089125 4.271245269312023e-05 0.0043778398841092395 -1.1794499188846086e-05 0.0007049011616888389 0.9999263695938025 -0.009460580929904233
1000000.0 0.999714869593185 -0.01935807250709433 -3.8977632284148646e-05 0.0018510462929188102 0.00016205401954951404 0.008753513107088192 0.00016205401954950586 0.008753513107088533
 -3.897763228414862e-05 0.0018510462929188106 0.999714869593185 -0.019358072507089992 0.00016205401954950095 0.008753513107088494 0.0001620540195495005 0.008753513107089191
 0.00016205401954951396 0.008753513107088188 0.000162054019549501 0.008753513107088495 0.9997244495988797 -0.018918104057614956 -4.85576379788277e-05 0.0014110778434394198
 0.00016205401954950575 0.008753513107088527 0.0001620540195495004 0.008753513107089186 -4.855763797882769e-05 0.0014110778434394187 0.99972444959888 -0.018918104057611615
1500000.0 0.9993731592359997 -0.02902944414363032 -8.898518112841125e-05 0.0027794247353184866 0.0003579129725644062 0.013125009704156563 0.0003579129725643876 0.013125009704157073
 -8.89851811284111e-05 0.002779424735318487 0.9993731592359997 -0.02902944414362382 0.0003579129725643765 0.013125009704157016 0.00035791297256437495 0.013125009704158056
 0.000357912972564406 0.013125009704156556 0.00035791297256437663 0.01312500970415702 0.9993943781252295 -0.028369772087429634 -0.00011020407035844528 0.0021197526791177862
 0.0003579129725643873 0.013125009704157064 0.0003579129725643748 0.01312500970415805 -0.00011020407035844524 0.0021197526791177854 0.9993943781252296 -0.028369772087424628
2000000.0 0.998898965041287 -0.03869184156681439 -0.00015917987059694676 0.00371118926314012 0.0006301074146551493 0.017490326151838 0.0006301074146551159 0.017490326151838684
 -0.00015917987059694665 0.0037111892631401192 0.998898965041287 -0.038691841566805725 0.0006301074146550964 0.017490326151838605 0.0006301074146550929 0.017490326151839992
 0.0006301074146551488 0.01749032615183799 0.0006301074146550964 0.017490326151838605 0.9989363794409992 -0.037812795042423915 -0.00019659427030941469 0.002832142738749613
 0.0006301074146551153 0.01749032615183867 0.0006301074146550925 0.017490326151839982 -0.00019659427030941463 0.0028321427387496107 0.9989363794409993 -0.037812795042417226
2500000.0 0.998292607633047 -0.04834237938274486 -0.0002493790298843705 0.004647442539963441 0.0009783856984185047 0.02184746842139179 0.0009783856984184529 0.02184746842139265
 -0.0002493790298843703 0.004647442539963441 0.9982926076330477 -0.04834237938273405 0.000978385698418422 0.021847468421392555 0.0009783856984184173 0.0218474684213943
 0.000978385698418504 0.021847468421391777 0.0009783856984184227 0.02184746842139257 0.9983507635207156 -0.04724439372335699 -0.0003075349175527585 0.0035494568805755277
 0.0009783856984184522 0.021847468421392634 0.0009783856984184164 0.02184746842139428 -0.00030753491755275826 0.0035494568805755264 0.9983507635207161 -0.047244393723348675
3000000.0 0.9975544956473634 -0.0579781867965796 -0.0003593496547221428 0.005589276793104079 0.0014024270036792285 0.02619445500173905 0.0014024270036791533 0.026194455001740075
 -0.0003593496547221425 0.005589276793104079 0.997554495647364 -0.05797818679656661 0.0014024270036791092 0.02619445500173996 0.0014024270036791012 0.02619445500174205
 0.0014024270036792276 0.026194455001739034 0.00140242700367911 0.026194455001739968 0.997637925422405 -0.05666180313568978 -0.0004427794297638152 0.004272893132214232
 0.0014024270036791524 0.02619445500174006 0.0014024270036791006 0.026194455001742036 -0.00044277942976381495 0.004272893132214231 0.9976379254224056 -0.05666180313567978
3500000.0 0.996685124924402 -0.06759641109207823 -0.0004888090671291799 0.0065377713274672265 0.001901842071363477 0.030529319882306998 0.0019018420713633754 0.030529319882308212
 -0.0004888090671291796 0.0065377713274672265 0.9966851249244029 -0.06759641109206312 0.0019018420713633158 0.030529319882308077 0.0019018420713633054 0.03052931988231052
 0.001901842071363476 0.030529319882306987 0.0019018420713633162 0.030529319882308083 0.9967983444961279 -0.06606227587468794 -0.0006020286388553028 0.005003636110076899
 0.0019018420713633746 0.030529319882308198 0.0019018420713633043 0.030529319882310505 -0.0006020286388553029 0.005003636110076895 0.9967983444961291 -0.06606227587467631
4000000.0 0.9956850775315429 -0.07719422105866341 -0.0006374257126934157 0.00749399008580479 0.002476174090575135 0.03485011548643103 0.0024761740905750013 0.03485011548643241
 -0.0006374257126934152 0.007493990085804793 0.9956850775315441 -0.07719422105864615 0.002476174090574924 0.034850115486432263 0.0024761740905749094 0.03485011548643505
 0.0024761740905751336 0.03485011548643101 0.002476174090574925 0.03485011548643227 0.9958325834271392 -0.0754430854588191 -0.0007849316082896814 0.0057428544859604285
 0.002476174090575 0.03485011548643239 0.0024761740905749076 0.03485011548643503 -0.000784931608289681 0.005742854485960423 0.99583258342714 -0.07544308545880578
4500000.0 0.9945550206215308 -0.08676881035633457 -0.0008048200917690081 0.008458979263891954 0.003124899735118904 0.03915491554622324 0.0031248997351187367 0.03915491554622481
 -0.0008048200917690071 0.008458979263891952 0.9945550206215323 -0.08676881035631519 0.003124899735118639 0.03915491554622464 0.0031248997351186205 0.03915491554622778
 0.0031248997351189024 0.03915491554622322 0.0031248997351186404 0.03915491554622466 0.9947412871175271 -0.08480152960192472 -0.0009910865877652468 0.006491698509482046
 0.0031248997351187345 0.03915491554622478 0.0031248997351186196 0.03915491554622777 -0.0009910865877652466 0.006491698509482045 0.9947412871175284 -0.0848015296019098
5000000.0 0.9932957051301783 -0.09631740080909325 -0.0009905658203891122 0.009433764988829434 0.003847430345105298 0.04344181791013405 0.0038474303451050923 0.0434418179101358
 -0.0009905658203891107 0.009433764988829434 0.9932957051301803 -0.09631740080907172 0.003847430345104971 0.04344181791013562 0.0038474303451049483 0.04344181791013912
 0.003847430345105296 0.04344181791013404 0.003847430345104973 0.04344181791013564 0.993525181410818 -0.09413493341496945 -0.0012200421010288038 0.007251297594705571
 0.00384743034510509 0.04344181791013578 0.0038474303451049457 0.04344181791013908 -0.0012200421010288027 0.007251297594705567 0.9935251814108194 -0.09413493341495287
5500000.0 0.9919079643187514 -0.10583724561790843 -0.001194190816138347 0.010419351068323838 0.004643113248693213 0.04770894727479467 0.004643113248692961 0.04770894727479658
 -0.001194190816138346 0.010419351068323838 0.9919079643187538 -0.1058372456178848 0.004643113248692817 0.0477089472747964 0.0046431132486927885 0.04770894727480025
 0.0046431132486932074 0.04770894727479463 0.004643113248692819 0.047708947274796416 0.9921850716646184 -0.10344065252853805 -0.0014712981620052428 0.008022757978953363
 0.004643113248692958 0.04770894727479655 0.004643113248692785 0.047708947274800205 -0.001471298162005242 0.008022757978953358 0.9921850716646199 -0.10344065252851979
6000000.0 0.9903927121667464 -0.11532563248466587 -0.0014151786037058483 0.011416716818403833 0.005511233218479508 0.0519544578331336 0.005511233218479211 0.0519544578331357
 -0.0014151786037058466 0.011416716818403835 0.990392712166749 -0.11532563248464012 0.005511233218479038 0.051954457833135494 0.005511233218479006 0.051954457833139685
 0.005511233218479505 0.05195445783313357 0.0055112332184790395 0.0519544578331355 0.9907218411769451 -0.11271607612766227 -0.001744307613904627 0.00880716046140015
 0.005511233218479207 0.05195445783313566 0.005511233218479002 0.05195445783313966 -0.0017443076139046266 0.008807160461400145 0.990721841176947 -0.11271607612764238
6500000.0 0.9887509416212822 -0.12477988663899649 -0.0016529697343522925 0.012426814976597016 0.006451014056534857 0.05617653583120255 0.006451014056534506 0.05617653583120481
 -0.001652969734352291 0.012426814976597016 0.9887509416212852 -0.12477988663896866 0.006451014056534309 0.05617653583120461 0.00645101405653427 0.056176535831209164
 0.006451014056534852 0.05617653583120251 0.006451014056534309 0.05617653583120462 0.9891364494724034 -0.12195862989100847 -0.002038477585473511 0.00960555822860888
 0.0064510140565345 0.05617653583120475 0.006451014056534266 0.05617653583120912 -0.0020384775854735103 0.009605558228608875 0.9891364494724052 -0.12195862989098694
7000000.0 0.9869837227098462 -0.1341973737603721 -0.0019069633130756006 0.013450569707125583 0.007461620301614448 0.06037340202662624 0.007461620301614049 0.06037340202662872
 -0.0019069633130755998 0.01345056970712558 0.9869837227098499 -0.13419737376034221 0.007461620301613818 0.0603734020266285 0.007461620301613776 0.06037340202663342
 0.007461620301614443 0.06037340202662621 0.007461620301613821 0.060373402026628525 0.9874299304548726 -0.1311657788269448 -0.0023531710581023778 0.010418974773698256
 0.007461620301614045 0.060373402026628706 0.007461620301613773 0.060373402026633396 -0.0023531710581023778 0.010418974773698252 0.9874299304548753 -0.13116577882692174
7500000.0 0.9850922005235648 -0.14357550278837672 -0.0021765186268525075 0.014488874704181295 0.008542159051643333 0.06454331404210094 0.008542159051642882 0.06454331404210362
 -0.0021765186268525066 0.014488874704181297 0.9850922005235692 -0.14357550278834477 0.008542159051642613 0.0645433140421034 0.00854215905164257 0.06454331404210867
 0.008542159051643329 0.0645433140421009 0.008542159051642618 0.06454331404210341 0.9856033904338003 -0.14033502999952568 -0.002687708537087664 0.011248401915330138
 0.008542159051642873 0.06454331404210358 0.008542159051642562 0.06454331404210861 -0.0026877085370876613 0.01124840191533013 0.9856033904338033 -0.14033502999950104
8000000.0 0.9830775930785854 -0.15291172861461527 -0.002460956866969094 0.015542591398816195 0.009691681894191258 0.06868456860790298 0.009691681894190741 0.06868456860790585
 -0.0024609568669690905 0.015542591398816192 0.9830775930785901 -0.15291172861458122 0.009691681894190438 0.06868456860790559 0.009691681894190389 0.06868456860791124
 0.009691681894191253 0.06868456860790294 0.009691681894190441 0.0686845686079056 0.9836580060315935 -0.14946393513797573 -0.0030413698199770064 0.012094797922176518
 0.009691681894190736 0.0686845686079058 0.009691681894190382 0.0686845686079112 -0.0030413698199770055 0.012094797922176511 0.9836580060315973 -0.14946393513794948
8500000.0 0.980941189063507 -0.16220355465029446 -0.0027595629381345047 0.01661254727443872 0.01090918693731316 0.0727955036879315 0.01090918693731258 0.07279550368793457
 -0.0027595629381345034 0.016612547274438717 0.9809411890635122 -0.16220355465025837 0.010909186937312241 0.07279550368793432 0.010909186937312186 0.07279550368794031
 0.010909186937313154 0.07279550368793146 0.010909186937312245 0.07279550368793433 0.9815950219799745 -0.1585500931238308 -0.0034133958546020745 0.012959085747974936
 0.010909186937312574 0.07279550368793453 0.01090918693731218 0.07279550368794029 -0.003413395854602073 0.012959085747974927 0.9815950219799785 -0.15855009312380294
9000000.0 0.9786843454811187 -0.17144853526410905 -0.0030715873467996187 0.01769953429534004 0.012193620932839794 0.07687450048438836 0.012193620932839147 0.07687450048439162
 -0.0030715873467996153 0.01769953429534004 0.9786843454811246 -0.17144853526407094 0.012193620932838769 0.07687450048439137 0.01219362093283871 0.07687450048439773
 0.012193620932839789 0.07687450048438832 0.012193620932838775 0.07687450048439139 0.9794157488134452 -0.1675911523504802 -0.0038029906791255974 0.013842151381710988
 0.012193620932839138 0.07687450048439157 0.012193620932838704 0.0768745004843977 -0.003802990679125594 0.013842151381710983 0.9794157488134492 -0.16759115235045072
9500000.0 0.9763084851929571 -0.1806442780856764 -0.003396248160877378 0.018804307452096446 0.013543881483959512 0.08091998531679406 0.013543881483958797 0.08091998531679752
 -0.003396248160877375 0.018804307452096443 0.9763084851929636 -0.1806442780856363 0.01354388148395838 0.08091998531679727 0.013543881483958319 0.080919985316804
 0.013543881483959505 0.08091998531679401 0.013543881483958384 0.0809199853167973 0.9771215604682792 -0.17658481295046308 -0.00420932343619939 0.014744842316882943
 0.013543881483958789 0.08091998531679746 0.013543881483958308 0.08091998531680396 -0.0042093234361993866 0.014744842316882932 0.977121560468284 -0.1765848129504321
10000000.0 0.9738150943754075 -0.18978844617038493 -0.0037327330328845018 0.01992758342710435 0.014958819328737773 0.08493043137164458 0.014958819328736982 0.08493043137164824
 -0.003732733032884499 0.019927583427104354 0.973815094375415 -0.18978844617034288 0.01495881932873653 0.08493043137164802 0.014958819328736462 0.0849304313716551
 0.014958819328737766 0.08493043137164454 0.014958819328736538 0.08493043137164805 0.9747138917956718 -0.18552882888648986 -0.004631530453148403 0.01566796614320908
 0.014958819328736975 0.0849304313716482 0.01495881932873645 0.08493043137165504 -0.0046315304531484025 0.01566796614320907 0.9747138917956769 -0.1855288288864573
10500000.0 0.9712057198962432 -0.1988787600221531 -0.00408020127839511 0.021070039382910702 0.016437240691075133 0.0889043603196257 0.01643724069107427 0.08890436031962959
 -0.004080201278395106 0.021070039382910702 0.9712057198962514 -0.19887876002210908 0.01643724069107377 0.08890436031962935 0.016437240691073704 0.0889043603196368
 0.016437240691075126 0.08890436031962565 0.01643724069107378 0.08890436031962938 0.9721942359978107 -0.19442100990278138 -0.0050687173799624004 0.01661228926353872
 0.016437240691074266 0.08890436031962956 0.016437240691073694 0.08890436031963676 -0.005068717379962399 0.01661228926353871 0.9721942359978168 -0.19442100990274735
11000000.0 0.9684819666205986 -0.20791299947122735 -0.004437786001615483 0.022232311875405177 0.017977909690507478 0.09284034379791577 0.01797790969050654 0.09284034379791986
 -0.004437786001615481 0.02223231187540518 0.9684819666206078 -0.20791299947118136 0.017977909690505996 0.09284034379791965 0.017977909690505927 0.09284034379792748
 0.01797790969050747 0.09284034379791574 0.017977909690506007 0.0928403437979197 0.9695641419957751 -0.20325922333394852 -0.005519961376791537 0.01757853573812618
 0.017977909690506534 0.09284034379791983 0.017977909690505913 0.09284034379792744 -0.005519961376791535 0.01757853573812617 0.9695641419957813 -0.20325922333391291
11500000.0 0.9656454946554464 -0.21688900540477735 -0.004804596259854822 0.023414995893347706 0.019579550802203118 0.09673700475571974 0.0195795508022021 0.09673700475572408
 -0.00480459625985482 0.023414995893347702 0.965645494655456 -0.21688900540472952 0.019579550802201518 0.09673700475572386 0.019579550802201442 0.09673700475573206
 0.01957955080220311 0.09673700475571972 0.019579550802201525 0.0967370047557239 0.966825211738196 -0.2120413957692582 -0.005984313342603973 0.018567386257828312
 0.019579550802202087 0.09673700475572401 0.019579550802201428 0.096737004755732 -0.0059843133426039676 0.018567386257828302 0.9668252117382028 -0.21204139576922107
12000000.0 0.9626980165416577 -0.22580468134867682 -0.005179719258678533 0.02461864402511864 0.021240851358509415 0.1005930186617842 0.021240851358508308 0.10059301866178871
 -0.0051797192586785275 0.024618644025118635 0.9626980165416682 -0.22580468134862697 0.021240851358507666 0.1005930186617885 0.021240851358507597 0.1005930186617971
 0.021240851358509404 0.10059301866178416 0.02124085135850768 0.10059301866178856 0.9639790974596513 -0.22076551457075186 -0.006460800176672122 0.019579477247193538
 0.0212408513585083 0.10059301866178869 0.02124085135850759 0.10059301866179707 -0.0064608001766721206 0.01957947724719353 0.9639790974596587 -0.22076551457071325
12500000.0 0.959641294402695 -0.23465799489946676 -0.0055622225695867835 0.025843765753002023 0.02296046408344474 0.10440711457323767 0.02296046408344356 0.10440711457324246
 -0.005562222569586776 0.02584376575300202 0.9596412944027063 -0.234657994899415 0.02296046408344287 0.10440711457324225 0.022960464083442798 0.10440711457325119
 0.022960464083444727 0.10440711457323762 0.022960464083442877 0.10440711457324227 0.9610274988977154 -0.22942962924429314 -0.006948427064607075 0.020615400097828234
 0.022960464083443554 0.1044071145732424 0.02296046408344279 0.10440711457325115 -0.00694842706460707 0.020615400097828227 0.9610274988977238 -0.22942962924425314
13000000.0 0.9564771370589182 -0.24344697900611176 -0.0059511563621602115 0.0270908268747514 0.024737009651619665 0.10817807606568576 0.02473700965161838 0.10817807606569073
 -0.005951156362160209 0.027090826874751395 0.9564771370589304 -0.2434469790060581 0.024737009651617653 0.10817807606569056 0.024737009651617587 0.10817807606569992
 0.024737009651619644 0.10817807606568568 0.024737009651617656 0.10817807606569056 0.957972160477516 -0.2380318526632187 -0.007446179780757364 0.021675700531858005
 0.024737009651618364 0.10817807606569065 0.02473700965161757 0.10817807606569985 -0.007446179780757363 0.021675700531857994 0.9579721604775245 -0.23803185266317708
13500000.0 0.9532073971163529 -0.25216973310173635 -0.006345555642754644 0.02836024905164142 0.026569079263199496 0.11190474202505327 0.026569079263198146 0.11190474202505851
 -0.006345555642754635 0.02836024905164142 0.9532073971163662 -0.25216973310168095 0.026569079263197355 0.1119047420250583 0.026569079263197293 0.11190474202506806
 0.02656907926319948 0.11190474202505318 0.026569079263197366 0.11190474202505832 0.9548148684725243 -0.24657036214484518 -0.00795302699892579 0.02276087809474992
 0.02656907926319812 0.11190474202505839 0.026569079263197272 0.11190474202506796 -0.007953026998925784 0.02276087809474991 0.9548148684725337 -0.24657036214480219
14000000.0 0.9498339680386209 -0.2608244240861028 -0.0067444424920053165 0.02965240948168493 0.028455237226690615 0.11558600730221494 0.028455237226689172 0.11558600730222039
 -0.0067444424920053096 0.029652409481684922 0.949833968038635 -0.26082442408604556 0.02845523722668833 0.11558600730222021 0.028455237226688274 0.11558600730223033
 0.028455237226690588 0.1155860073022148 0.028455237226688333 0.11558600730222021 0.9515574481501505 -0.25504340038064927 -0.008467922603534581 0.02387138577623112
 0.028455237226689155 0.11558600730222032 0.02845523722668826 0.11558600730223027 -0.008467922603534583 0.023871385776231113 0.9515574481501606 -0.25504340038060486
14500000.0 0.9463587812105366 -0.26940928716013424 -0.007146828293615971 0.030967640696193316 0.030394023541538036 0.11922082323197669 0.0303940235415365 0.1192208232319824
 -0.007146828293615966 0.030967640696193312 0.9463587812105517 -0.2694092871600751 0.030394023541535597 0.11922082323198223 0.030394023541535548 0.11922082323199276
 0.030394023541538005 0.11922082323197657 0.03039402354153561 0.11922082323198226 0.9482017609105036 -0.26344927622147235 -0.008989807993582462 0.02500762975753105
 0.03039402354153648 0.1192208232319823 0.030394023541535538 0.11922082323199269 -0.00898980799358246 0.025007629757531038 0.9482017609105143 -0.2634492762214265
15000000.0 0.9427838030016263 -0.2779226265143056 -0.007551715947156165 0.032306230477381646 0.03238395647276314 0.12280819801846833 0.03238395647276154 0.12280819801847434
 -0.007551715947156159 0.03230623047738164 0.9427838030016423 -0.27792262651424465 0.03238395647276056 0.12280819801847415 0.032383956472760524 0.12280819801848507
 0.03238395647276313 0.12280819801846832 0.032383956472760586 0.12280819801847424 0.9447497014264544 -0.27178636531961636 -0.009517614371983747 0.02616996928269209
 0.032383956472761516 0.12280819801847427 0.03238395647276051 0.12280819801848501 -0.009517614371983738 0.026169969282692076 0.944749701426466 -0.27178636531956923
15500000.0 0.9391110318375795 -0.2863628158732189 -0.007958102057869459 0.0336684218942729 0.03442353511014296 0.12634719698947958 0.03442353511014127 0.12634719698948585
 -0.007958102057869456 0.033668421894272896 0.9391110318375965 -0.2863628158731563 0.03442353511014026 0.12634719698948574 0.034423535110140235 0.12634719698949703
 0.03442353511014295 0.12634719698947952 0.03442353511014027 0.12634719698948577 0.9412031947928685 -0.2800531106301856 -0.010050265013158016 0.027358716651239276
 0.03442353511014124 0.12634719698948574 0.03442353511014021 0.12634719698949695 -0.01005026501315801 0.02735871665123925 0.9412031947928808 -0.2800531106301371
16000000.0 0.9353424952873308 -0.29472829889914154 -0.008364979096801197 0.03505441345373625 0.036511241904733024 0.12983694272270946 0.03651124190473122 0.12983694272271595
 -0.008364979096801188 0.03505441345373624 0.9353424952873494 -0.29472829889907737 0.036511241904730166 0.12983694272271587 0.03651124190473016 0.12983694272272758
 0.036511241904733 0.1298369427227094 0.03651124190473018 0.12983694272271587 0.9375641936925738 -0.28824802277447975 -0.010586677502044246 0.028574137329074163
 0.036511241904731206 0.1298369427227159 0.03651124190473014 0.12983694272272753 -0.010586677502044246 0.028574137329074146 0.9375641936925874 -0.2882480227744298
16500000.0 0.9314802471731554 -0.3030175894577166 -0.008771337524886165 0.036464359363107664 0.03864554517586327 0.13327661504731148 0.03864554517586136 0.1332766150473182
 -0.008771337524886163 0.03646435936310766 0.931480247173174 -0.30301758945765045 0.03864554517586025 0.13327661504731816 0.03864554517586023 0.1332766150473302
 0.038645545175863244 0.13327661504731142 0.03864554517586026 0.1332766150473182 0.933834675586314 -0.29636968026867433 -0.0111257659380445 0.029816450174065
 0.03864554517586135 0.13327661504731816 0.03864554517586021 0.13327661504733015 -0.011125765938044499 0.029816450174064986 0.9338346755863277 -0.2963696802686229
17000000.0 0.9275263647108127 -0.31122927174945525 -0.009176167874988877 0.03789836990048645 0.04082490158208571 0.1366654509244917 0.04082490158208373 0.13666545092449872
 -0.009176167874988862 0.03789836990048645 0.9275263647108332 -0.3112292717493877 0.04082490158208256 0.13666545092449867 0.04082490158208258 0.13666545092451118
 0.04082490158208568 0.13666545092449162 0.04082490158208257 0.1366654509244987 0.9300166399335794 -0.30441672962141275 -0.011666443097754916 0.031085827772443432
 0.040824901582083704 0.13666545092449864 0.040824901582082566 0.13666545092451113 -0.011666443097754912 0.03108582777244341 0.9300166399335941 -0.3044167296213601
17500000.0 0.9234829456864121 -0.3193620003109879 -0.009578462786260102 0.03935651188847992 0.04304775854992161 0.14000274421126144 0.04304775854991954 0.14000274421126876
 -0.009578462786260093 0.039356511888479905 0.9234829456864332 -0.3193620003109185 0.04304775854991829 0.1400027442112687 0.04304775854991834 0.14000274421128162
 0.043047758549921586 0.14000274421126138 0.04304775854991831 0.14000274421126876 0.9261121054508653 -0.31238788530429984 -0.012207622550712813 0.03238239688179143
 0.04304775854991951 0.14000274421126863 0.04304775854991831 0.14000274421128156 -0.012207622550712807 0.032382396881791405 0.9261121054508806 -0.31238788530424594
18000000.0 0.9193521056762742 -0.3274144998903754 -0.009977218985559916 0.04083880926688128 0.045312556654640186 0.14328784531175479 0.04531255665463803 0.14328784531176236
 -0.009977218985559913 0.04083880926688128 0.9193521056762969 -0.3274144998903046 0.04531255665463674 0.14328784531176242 0.04531255665463681 0.1432878453117757
 0.045312556654640165 0.14328784531175473 0.04531255665463676 0.14328784531176247 0.9221231074134911 -0.3202819295996026 -0.012748220722776017 0.03370623897610788
 0.045312556654637993 0.14328784531176225 0.04531255665463677 0.14328784531177563 -0.012748220722776012 0.03370623897610786 0.9221231074135072 -0.3202819295995474
18500000.0 0.9151359753156887 -0.335385565201091 -0.010371439211095264 0.04234524375951372 0.04761773194770065 0.1465201607207965 0.0476177319476984 0.14652016072080437
 -0.01037143921109525 0.04234524375951373 0.9151359753157118 -0.33538556520101825 0.047617731947697035 0.14652016072080437 0.04761773194769712 0.1465201607208181
 0.047617731947700616 0.1465201607207964 0.04761773194769704 0.1465201607208044 0.918051695006743 -0.32809771232976354 -0.013287158902149451 0.035057390888185824
 0.047617731947698375 0.1465201607208043 0.0476177319476971 0.14652016072081803 -0.013287158902149451 0.0350573908881858 0.9180516950067603 -0.3280977123297071
19000000.0 0.9108366976220305 -0.3432740605595278 -0.01076013407382781 0.043875755630254525 0.04996171822589569 0.14969915246464477 0.04996171822589334 0.14969915246465293
 -0.0107601340738278 0.043875755630254525 0.9108366976220551 -0.34327406055945364 0.049961718225891946 0.149699152464653 0.04996171822589204 0.1496991524646671
 0.04996171822589565 0.14969915246464466 0.049961718225891946 0.149699152464653 0.9138999287316859 -0.33583415047358117 -0.013823365183482785 0.03643584554430725
 0.049961718225893306 0.14969915246465282 0.049961718225892 0.149699152464667 -0.013823365183482787 0.03643584554430724 0.913899928731704 -0.33583415047352333
19500000.0 0.9064564253773116 -0.35107891941113384 -0.011142323852621127 0.04543024452307053 0.052342949237651815 0.15282433744403992 0.05234294923764937 0.15282433744404836
 -0.011142323852621119 0.045430244523070526 0.9064564253773371 -0.3510789194110579 0.052342949237647894 0.15282433744404847 0.05234294923764803 0.152824337444063
 0.05234294923765179 0.15282433744403984 0.052342949237647915 0.15282433744404852 0.9096698778705689 -0.34349022767413634 -0.01435577634587795 0.03784155278607248
 0.05234294923764936 0.15282433744404827 0.052342949237648005 0.15282433744406293 -0.014355776345877943 0.037841552786072465 0.9096698778705875 -0.3434902276740772
20000000.0 0.901997318574787 -0.358799143750447 -0.011517040219512789 0.04700857038074531 0.05475986082235956 0.15589528668485944 0.05475986082235702 0.15589528668486813
 -0.011517040219512779 0.047008570380745296 0.9019973185748142 -0.3587991437503698 0.05475986082235551 0.15589528668486832 0.05475986082235567 0.15589528668488326
 0.05475986082235954 0.15589528668485939 0.054759860822355545 0.15589528668486843 0.9053636180163391 -0.351064993643728 -0.01488333966106379 0.03927442027402555
 0.054759860822356995 0.15589528668486805 0.05475986082235564 0.1558952866848832 -0.014883339661063772 0.03927442027402553 0.9053636180163583 -0.3510649936436676
20500000.0 0.8974615419338491 -0.36643380344048326 -0.01188332789191414 0.04861055443686266 0.05721089297902909 0.15891162450181898 0.05721089297902649 0.15891162450182802
 -0.011883327891914139 0.048610554436862644 0.8974615419338771 -0.3664338034404044 0.057210892979024895 0.15891162450182825 0.057210892979025096 0.1589116245018436
 0.05721089297902907 0.15891162450181892 0.057210892979024916 0.15891162450182827 0.9009832286703495 -0.3585575634712359 -0.01540501462841415 0.04073431446761479
 0.057210892979026456 0.15891162450182794 0.05721089297902507 0.1589116245018435 -0.015405014628414137 0.04073431446761476 0.9009832286703696 -0.35855756347117435
21000000.0 0.8928512624869774 -0.37398203543703457 -0.012240246208955476 0.050235980275526095 0.059694491860985355 0.1618730275807631 0.059694491860982656 0.16187302758077246
 -0.012240246208955474 0.050235980275526095 0.892851262487007 -0.3739820354369543 0.059694491860981004 0.1618730275807727 0.059694491860981254 0.1618730275807885
 0.059694491860985334 0.16187302758076308 0.05969449186098103 0.1618730275807728 0.8965307909119259 -0.3659671168374471 -0.015919774633903497 0.042221061675938094
 0.05969449186098264 0.1618730275807724 0.05969449186098123 0.16187302758078842 -0.01591977463390349 0.04222106167593806 0.8965307909119472 -0.3659671168373845
21500000.0 0.8881686472421312 -0.38144304292354586 -0.012586870629604462 0.05188459495324111 0.06220911169373285 0.1647792239851615 0.06220911169373006 0.16477922398517117
 -0.012586870629604455 0.05188459495324112 0.8881686472421615 -0.38144304292346404 0.062209111693728336 0.16477922398517145 0.062209111693728635 0.16477922398518768
 0.06220911169373282 0.16477922398516143 0.06220911169372835 0.16477922398517145 0.8920083851430334 -0.37329289714396896 -0.01642660853050637 0.043734449173663606
 0.06220911169373002 0.16477922398517106 0.06220911169372859 0.16477922398518755 -0.01642660853050636 0.04373444917366359 0.8920083851430557 -0.37329289714390507
22000000.0 0.8834158609235193 -0.3888160943622879 -0.012922294150589451 0.053556110177364204 0.064753216613531 0.16762999209247123 0.06475321661352815 0.16762999209248122
 -0.012922294150589445 0.0535561101773642 0.8834158609235511 -0.38881609436220477 0.06475321661352637 0.16762999209248156 0.0647532166135267 0.16762999209249818
 0.06475321661353096 0.16762999209247115 0.06475321661352641 0.16762999209248164 0.8874180889108846 -0.38053421056141346 -0.016924522137954163 0.045274226376488994
 0.0647532166135281 0.16762999209248117 0.06475321661352668 0.16762999209249813 -0.01692452213795416 0.04527422637648898 0.8874180889109079 -0.3805342105613484
22500000.0 0.8785950637933012 -0.39610052246758504 -0.013245628642553875 0.05525020353552787 0.06732528242462214 0.17042515946603817 0.0673252824246192 0.1704251594660485
 -0.013245628642553874 0.05525020353552787 0.8785950637933342 -0.39610052246750044 0.06732528242461736 0.17042515946604886 0.06732528242461774 0.17042515946606593
 0.06732528242462209 0.1704251594660381 0.06732528242461737 0.1704251594660489 0.8827619748109076 -0.38769042500256046 -0.017412539660159952 0.04684010607050268
 0.06732528242461915 0.1704251594660484 0.0673252824246177 0.17042515946606582 -0.017412539660159956 0.046840106070502645 0.882761974810932 -0.3876904250024944
23000000.0 0.8737084095563519 -0.4032957231068546 -0.013556006103251238 0.056966519770483504 0.06992379827344535 0.17316460166819544 0.06992379827344233 0.1731646016682061
 -0.013556006103251233 0.056966519770483504 0.8737084095563863 -0.4032957231067688 0.06992379827344046 0.17316460166820655 0.06992379827344089 0.173164601668224
 0.06992379827344532 0.17316460166819533 0.06992379827344047 0.17316460166820655 0.8780421084721103 -0.39476096902621044 -0.017889705019009033 0.0484317656898384
 0.06992379827344226 0.1731646016682059 0.06992379827344083 0.17316460166822384 -0.01788970501900902 0.04843176568983836 0.8780421084721352 -0.3947609690261431
23500000.0 0.8687580433498506 -0.4104011541351996 -0.013852579826961779 0.05870467209486196 0.07254726823855108 0.17584824102017887 0.07254726823854794 0.17584824102018976
 -0.013852579826961775 0.05870467209486196 0.8687580433498864 -0.4104011541351124 0.07254726823854603 0.1758482410201903 0.07254726823854651 0.17584824102020818
 0.07254726823855102 0.17584824102017876 0.07254726823854606 0.17584824102019034 0.8732605466264769 -0.4017453306774065 -0.018355083103587577 0.050048848637068065
 0.07254726823854792 0.1758482410201897 0.07254726823854644 0.17584824102020805 -0.018355083103587577 0.05004884863706804 0.8732605466265029 -0.4017453306773381
24000000.0 0.8637460998190672 -0.4174163341692408 -0.01413452548966891 0.06046424354043363 0.07519421283529576 0.17847604531441386 0.07519421283529258 0.17847604531442518
 -0.014134525489668889 0.060464243540433615 0.8637460998191047 -0.4174163341691523 0.0751942128352906 0.17847604531442576 0.07519421283529117 0.17847604531444408
 0.07519421283529572 0.17847604531441374 0.07519421283529061 0.1784760453144258 0.8684193352636821 -0.4086430562696636 -0.018807760934282745 0.05169096564085551
 0.07519421283529253 0.178476045314425 0.07519421283529111 0.17847604531444397 -0.01880776093428273 0.05169096564085548 0.8684193352637092 -0.40864305626959424
24500000.0 0.8586747012803644 -0.4243408413058164 -0.01440104214987451 0.062244788336553405 0.07786317043475005 0.181048026484642 0.07786317043474679 0.18104802648465362
 -0.0144010421498745 0.062244788336553405 0.8586747012804028 -0.4243408413057266 0.07786317043474474 0.18104802648465423 0.07786317043474539 0.18104802648467308
 0.07786317043475001 0.18104802648464186 0.07786317043474476 0.1810480264846543 0.8635205078720231 -0.4154537491147569 -0.019246848741532437 0.05335769614549291
 0.07786317043474676 0.18104802648465354 0.07786317043474533 0.18104802648467294 -0.01924684874153243 0.053357696145492885 0.8635205078720511 -0.4154537491146864
25000000.0 0.8535459559720749 -0.4311743117910682 -0.014651353165258278 0.06404583331259868 0.08055269859658624 0.1835642392392455 0.08055269859658289 0.1835642392392574
 -0.014651353165258268 0.06404583331259867 0.8535459559721146 -0.4311743117909771 0.08055269859658083 0.1835642392392582 0.08055269859658146 0.18356423923927725
 0.0805526985965862 0.18356423923924536 0.08055269859658086 0.18356423923925821 0.8585660837661503 -0.42217706820553236 -0.019671480959332497 0.05504858972706189
 0.08055269859658284 0.18356423923925727 0.08055269859658143 0.1835642392392772 -0.019671480959332494 0.05504858972706187 0.8585660837661788 -0.4221770682054607
25500000.0 0.8483619563936126 -0.43791643864534396 -0.01488470702569276 0.0658668793193525 0.0832613753160346 0.18602477966300668 0.08326137531603117 0.186024779663019
 -0.014884707025692733 0.06586687931935248 0.8483619563936534 -0.43791643864525165 0.08326137531602902 0.18602477966301975 0.08326137531602976 0.18602477966303935
 0.08326137531603454 0.18602477966300657 0.08326137531602905 0.18602477966301978 0.8535580665018409 -0.4288127268570927 -0.020080817133920452 0.05676316753110019
 0.0832613753160311 0.18602477966301884 0.08326137531602973 0.18602477966303926 -0.020080817133920462 0.056763167531100146 0.8535580665018705 -0.42881272685702
26000000.0 0.8431247777328162 -0.4445669702491972 -0.01510037810341566 0.06770740266443984 0.08598780018529398 0.18842978379238984 0.0859878001852905 0.18842978379240247
 -0.01510037810341565 0.06770740266443981 0.8431247777328585 -0.44456697024910363 0.08598780018528829 0.18842978379240333 0.08598780018528918 0.18842978379242348
 0.08598780018529391 0.18842978379238973 0.08598780018528827 0.18842978379240333 0.8484984423777495 -0.4353604913115665 -0.020474042748348478 0.05850092372680826
 0.08598780018529044 0.18842978379240233 0.08598780018528912 0.1884297837924234 -0.020474042748348468 0.05850092372680822 0.8484984423777807 -0.43536049131149307
26500000.0 0.8378364763812809 -0.4511257088956326 -0.015297667321431056 0.06956685655709938 0.08873059547006915 0.19077942616927793 0.0887305954700656 0.1907794261692909
 -0.015297667321431032 0.06956685655709938 0.8378364763813245 -0.45112570889553777 0.08873059547006333 0.19077942616929183 0.08873059547006426 0.19077942616931232
 0.08873059547006909 0.19077942616927782 0.08873059547006337 0.19077942616929192 0.8433891790237831 -0.44182017931153594 -0.020850369963932667 0.06026132697300195
 0.08873059547006555 0.19077942616929078 0.08873059547006423 0.19077942616931226 -0.020850369963932663 0.06026132697300192 0.8433891790238148 -0.4418201793114615
27000000.0 0.8324990885371121 -0.4575925093135838 -0.015475902741462336 0.07144467255775824 0.09148840710216886 0.19307391837792443 0.09148840710216526 0.1930739183779378
 -0.015475902741462325 0.07144467255775824 0.8324990885371566 -0.45759250931348794 0.09148840710216295 0.19307391837793875 0.09148840710216397 0.1930739183779597
 0.09148840710216881 0.19307391837792434 0.09148840710216298 0.19307391837793883 0.8382322240754726 -0.448191658647025 -0.02120903827982207 0.06204382189119827
 0.0914884071021652 0.1930739183779377 0.0914884071021639 0.19307391837795956 -0.021209038279822047 0.06204382189119824 0.8382322240755055 -0.44819165864694954
27500000.0 0.8271146288943099 -0.4639672771674386 -0.01563444007301108 0.07334026202807235 0.09425990558934397 0.19531350756969498 0.09425990558934039 0.1953135075697088
 -0.015634440073011062 0.07334026202807234 0.8271146288943564 -0.4639672771673417 0.09425990558933797 0.19531350756970972 0.09425990558933915 0.19531350756973126
 0.09425990558934391 0.19531350756969487 0.09425990558933803 0.19531350756970983 0.8330295039334646 -0.4544748456807829 -0.02154931511216532 0.06384783054141561
 0.09425990558934033 0.19531350756970872 0.09425990558933904 0.19531350756973107 -0.0215493151121653 0.06384783054141557 0.833029503933499 -0.4544748456807067
28000000.0 0.8216850894177317 -0.47024996753724113 -0.015772663105287903 0.07525301757730148 0.09704378684377121 0.19749847497998196 0.09704378684376751 0.19749847497999612
 -0.01577266310528788 0.07525301757730148 0.8216850894177797 -0.47024996753714327 0.0970437868437651 0.1974984749799972 0.09704378684376634 0.19749847498001907
 0.09704378684377112 0.1974984749799818 0.09704378684376512 0.1974984749799972 0.8277829226070157 -0.46066970385641415 -0.021870496294570996 0.06567275389647323
 0.09704378684376748 0.19749847497999598 0.09704378684376626 0.1974984749800189 -0.02187049629457099 0.0656727538964732 0.8277829226070507 -0.46066970385633693
28500000.0 0.8162124382023739 -0.47644058338402157 -0.01588998406397381 0.07718231450110076 0.09983877293079292 0.1996291344414728 0.09983877293078915 0.19962913444148722
 -0.015889984063973794 0.07718231450110075 0.8162124382024232 -0.4764405833839225 0.09983877293078673 0.19962913444148847 0.09983877293078798 0.19962913444151067
 0.09983877293079285 0.19962913444147265 0.09983877293078676 0.1996291344414885 0.8224943606401542 -0.46677624219370645 -0.022171906501753096 0.06751797331078431
 0.0998387729307891 0.1996291344414871 0.09983877293078794 0.1996291344415106 -0.022171906501753078 0.06751797331078427 0.8224943606401901 -0.4667762421936281
29000000.0 0.8106986184155043 -0.4825391740044909 -0.015985843894942793 0.0791275122090271 0.10264361273971193 0.20170583089774455 0.10264361273970812 0.2017058308977594
 -0.015985843894942776 0.07912751220902708 0.810698618415555 -0.4825391740043908 0.10264361273970561 0.20170583089776062 0.10264361273970705 0.20170583089778343
 0.10264361273971181 0.20170583089774433 0.10264361273970565 0.20170583089776067 0.8171656741189932 -0.47279451377531967 -0.022452899598430928 0.06938285197985457
 0.10264361273970805 0.20170583089775926 0.10264361273970699 0.2017058308977833 -0.022452899598430928 0.06938285197985454 0.8171656741190305 -0.4727945137752406
29500000.0 0.8051455473200009 -0.4885458334791489 -0.01605971247723018 0.08108795563728366 0.10545708257860704 0.20372893892094543 0.10545708257860317 0.20372893892096067
 -0.016059712477230165 0.08108795563728365 0.8051455473200528 -0.4885458334790478 0.10545708257860067 0.20372893892096208 0.10545708257860212 0.20372893892098515
 0.10545708257860698 0.2037289389209453 0.10545708257860066 0.20372893892096203 0.8117986937584829 -0.4787246142287855 -0.022712858915711277 0.07126673638691892
 0.10545708257860313 0.20372893892096058 0.10545708257860205 0.20372893892098498 -0.022712858915711287 0.07126673638691888 0.8117986937585205 -0.4787246142287054
30000000.0 0.79955511537708 -0.49446069911763557 -0.01611108876766635 0.08306297664344947 0.10827798669528539 0.20569886123710607 0.10827798669528155 0.2056988612371217
 -0.01611108876766634 0.08306297664344946 0.7995551153771333 -0.4944606991175335 0.10827798669527897 0.20569886123712317 0.10827798669528058 0.2056988612371467
 0.10827798669528536 0.20569886123710596 0.10827798669527904 0.20569886123712328 0.8063952240667338 -0.48456668020756 -0.022951197457319328 0.07316895773337258
 0.10827798669528146 0.20569886123712156 0.10827798669528052 0.20569886123714662 -0.0229511974573193 0.07316895773337254 0.8063952240667727 -0.4845666802074793
30500000.0 0.7939291854264579 -0.5002839499049511 -0.016139500879710736 0.08505189538016746 0.11110515772661828 0.20761602726240513 0.11110515772661435 0.20761602726242107
 -0.01613950087971073 0.08505189538016746 0.7939291854265125 -0.500283949904848 0.11110515772661174 0.20761602726242265 0.11110515772661347 0.20761602726244666
 0.11110515772661823 0.20761602726240505 0.11110515772661177 0.20761602726242268 0.8009570425849141 -0.4903208878746632 -0.023167358038165928 0.07508883334987823
 0.11110515772661432 0.207616027262421 0.11110515772661342 0.20761602726244655 -0.02316735803816593 0.07508883334987822 0.8009570425849537 -0.4903208878745815
31000000.0 0.7882695919418606 -0.506015804951958 -0.01614450609912086 0.08705402164499236 0.11393745707862155 0.20948089165349637 0.11393745707861762 0.20948089165351266
 -0.016144506099120853 0.08705402164499233 0.788269591941917 -0.506015804951854 0.113937457078615 0.2094808916535144 0.11393745707861683 0.20948089165353878
 0.11393745707862149 0.20948089165349623 0.11393745707861504 0.2094808916535145 0.7954858992005834 -0.495987451392225 -0.023360813357842798 0.0770256680852581
 0.11393745707861762 0.20948089165351266 0.11393745707861679 0.2094808916535387 -0.023360813357842805 0.07702566808525808 0.7954858992006248 -0.49598745139214284
31500000.0 0.7825781403596787 -0.5116565219533614 -0.016125690839171904 0.08906865620382286 0.11677377523973785 0.21129393287478315 0.11677377523973385 0.21129393287479986
 -0.016125690839171865 0.08906865620382282 0.7825781403597362 -0.5116565219532565 0.11677377523973118 0.21129393287480158 0.11677377523973309 0.21129393287482637
 0.11677377523973774 0.21129393287478293 0.11677377523973122 0.2112939328748016 0.78998351553223 -0.5015666214200418 -0.023531066011722293 0.07897875567050164
 0.11677377523973374 0.2112939328747997 0.11677377523973306 0.2112939328748263 -0.02353106601172231 0.07897875567050158 0.789983515532272 -0.5015666214199584
32000000.0 0.7768566064784728 -0.5172063956561592 -0.016082670538207132 0.09109509208556786 0.11961303202985787 0.21305565178530966 0.11961303202985399 0.213055651785327
 -0.016082670538207132 0.09109509208556786 0.7768566064785318 -0.5172063956560535 0.11961303202985119 0.2130556517853287 0.11961303202985338 0.2130556517853541
 0.11961303202985787 0.2130556517853097 0.1196130320298512 0.21305565178532873 0.784451584382675 -0.5070586836260385 -0.02367764844240835 0.08094738005544556
 0.1196130320298539 0.21305565178532687 0.11961303202985327 0.2130556517853539 -0.023677648442408317 0.0809473800554455 0.7844515843827184 -0.5070586836259546
32500000.0 0.7711067359269621 -0.5226657563413388 -0.016015089502350244 0.09313261584591438 0.12245417678768462 0.21476657024772652 0.12245417678768067 0.2147665702477442
 -0.016015089502350213 0.09313261584591435 0.7711067359270226 -0.5226657563412322 0.12245417678767785 0.21476657024774595 0.12245417678768017 0.21476657024777185
 0.12245417678768451 0.2147665702477264 0.12245417678767789 0.21476657024774604 0.7788917692589519 -0.512463957211326 -0.02380012283433925 0.08293081671589998
 0.12245417678768057 0.21476657024774404 0.12245417678768006 0.21476657024777168 -0.023800122834339237 0.08293081671589993 0.7788917692589965 -0.5124639572112414
33000000.0 0.7653302436980443 -0.5280349683213913 -0.015922620696242864 0.09518050879828076 0.1252961884990894 0.21642722976156983 0.12529618849908541 0.21642722976158785
 -0.015922620696242864 0.09518050879828072 0.7653302436981063 -0.528034968321284 0.1252961884990826 0.21642722976158985 0.12529618849908503 0.2164272297616161
 0.1252961884990893 0.21642722976156972 0.12529618849908264 0.21642722976158985 0.7733057039561844 -0.5177827934523228 -0.023898080954382013 0.08492833392921079
 0.12529618849908533 0.2164272297615877 0.12529618849908494 0.21642722976161594 -0.02389808095438199 0.08492833392921073 0.7733057039562299 -0.5177827934522375
33500000.0 0.7595288137463705 -0.5333144284560153 -0.015804965484694088 0.09723804821025027 0.12813807586915169 0.21803819012289738 0.12813807586914766 0.2180381901229158
 -0.015804965484694067 0.09723804821025024 0.7595288137464338 -0.5333144284559072 0.12813807586914489 0.21803819012291792 0.12813807586914738 0.21803819012294454
 0.12813807586915157 0.21803819012289724 0.12813807586914494 0.21803819012291792 0.7676949922029598 -0.523015574262227 -0.023971143941281886 0.08693919401645991
 0.1281380758691476 0.2180381901229157 0.1281380758691473 0.21803819012294443 -0.023971143941281893 0.08693919401645989 0.7676949922030061 -0.5230155742621406
34000000.0 0.7537040986469338 -0.5385045646881756 -0.015661853328132577 0.09930450846398256 0.13097887734058894 0.2196000281121117 0.1309788773405849 0.2196000281121305
 -0.015661853328132563 0.09930450846398253 0.7537040986469985 -0.5385045646880667 0.13097887734058203 0.2196000281121326 0.13097887734058472 0.2196000281121598
 0.13097887734058883 0.21960002811211154 0.13097887734058203 0.21960002811213258 0.7620612073656461 -0.5281627107739032 -0.024018962046843725 0.08896265454970811
 0.13097887734058483 0.21960002811213042 0.13097887734058464 0.21960002811215962 -0.024018962046843725 0.0889626545497081 0.7620612073656938 -0.5281627107738163
34500000.0 0.7478577193121295 -0.5436058346024971 -0.015493041434750677 0.10137916217930068 0.13381766106129983 0.2211133362116137 0.1338176610612957 0.22111333621163276
 -0.015493041434750662 0.10137916217930065 0.7478577193121955 -0.5436058346023874 0.1338176610612929 0.22111333621163515 0.1338176610612957 0.2211133362116626
 0.13381766106129966 0.22111333621161353 0.13381766106129286 0.2211133362116351 0.7564058922090996 -0.5332246419460851 -0.024041214331719393 0.09099796952288668
 0.13381766106129564 0.22111333621163265 0.1338176610612956 0.2211133362116625 -0.024041214331719407 0.09099796952288663 0.7564058922091478 -0.5332246419459974
35000000.0 0.7419912647647139 -0.548618724007779 -0.015298314372210029 0.10346128129834124 0.13665352480373708 0.22257872135473458 0.13665352480373305 0.22257872135475415
 -0.015298314372210004 0.1034612812983412 0.7419912647647813 -0.5486187240076685 0.1366535248037301 0.22257872135475645 0.13665352480373316 0.22257872135478446
 0.136653524803737 0.22257872135473444 0.1366535248037302 0.22257872135475654 0.7507305587111693 -0.5382018331945727 -0.02403760831866467 0.09304439048513313
 0.13665352480373297 0.222578721354754 0.13665352480373305 0.22257872135478435 -0.02403760831866464 0.09304439048513306 0.7507305587112187 -0.5382018331944844
35500000.0 0.7361062919640947 -0.5535437455452362 -0.015077483641753636 0.10555013813083927 0.1394855958388181 0.2239968037072144 0.1394855958388141 0.22399680370723443
 -0.015077483641753616 0.10555013813083923 0.7361062919641636 -0.5535437455451251 0.1394855958388112 0.2239968037072369 0.13948559583881437 0.2239968037072653
 0.139485595838818 0.2239968037072143 0.13948559583881123 0.22399680370723696 0.7450366879284462 -0.5430947750499528 -0.02400787960610449 0.09510116763555383
 0.13948559583881404 0.22399680370723435 0.13948559583881429 0.22399680370726516 -0.024007879606104506 0.0951011676355538 0.745036687928497 -0.543094775049864
36000000.0 0.7302043256833951 -0.5583814373239026 -0.014830387217531885 0.10764500635929658 0.1423130307670567 0.22536821548231914 0.14231303076705273 0.22536821548233954
 -0.014830387217531863 0.10764500635929654 0.7302043256834652 -0.5583814373237906 0.14231303076704974 0.22536821548234204 0.14231303076705312 0.22536821548237093
 0.1423130307670566 0.225368215482319 0.1423130307670498 0.22536821548234215 0.7393257299106785 -0.5479039818431793 -0.023951791444814626 0.09716755087857169
 0.14231303076705268 0.22536821548233946 0.14231303076705307 0.22536821548237085 -0.02395179144481461 0.09716755087857165 0.7393257299107303 -0.5479039818430901
36500000.0 0.7242868584347418 -0.5631323615844502 -0.014556889053904192 0.10974516200344711 0.14513501530956915 0.22669359979051804 0.14513501530956516 0.22669359979053885
 -0.014556889053904155 0.10974516200344707 0.7242868584348136 -0.5631323615843375 0.1451350153095622 0.22669359979054152 0.14513501530956568 0.2266935997905708
 0.14513501530956904 0.22669359979051787 0.14513501530956222 0.22669359979054152 0.7335991036613216 -0.5526299904201919 -0.02386913428048315 0.09924279083918673
 0.14513501530956505 0.22669359979053869 0.14513501530956557 0.2266935997905706 -0.023869134280483126 0.09924279083918668 0.7335991036613742 -0.5526299904201016
37000000.0 0.7183553504402631 -0.5677971033925363 -0.014256878563425397 0.11184988434359588 0.14795076406156865 0.227973609524487 0.14795076406156477 0.22797360952450832
 -0.014256878563425382 0.11184988434359584 0.7183553504403359 -0.567797103392423 0.14795076406156168 0.22797360952451104 0.1479507640615654 0.22797360952454077
 0.14795076406156854 0.2279736095244869 0.1479507640615617 0.22797360952451104 0.7278581971417074 -0.5572733588865808 -0.023759725264868848 0.10132613983763826
 0.14795076406156463 0.2279736095245081 0.1479507640615653 0.2279736095245406 -0.023759725264868845 0.1013261398376382 0.7278581971417613 -0.5572733588864902
37500000.0 0.7124112296463079 -0.5723762693626173 -0.013930270068164928 0.11395845680255676 0.1507595202109157 0.22920890628004742 0.15075952021091182 0.22920890628006904
 -0.013930270068164913 0.11395845680255672 0.7124112296463824 -0.5723762693625035 0.15075952021090877 0.22920890628007193 0.15075952021091266 0.22920890628010204
 0.1507595202109156 0.22920890628004723 0.1507595202109088 0.22920890628007193 0.7221043673163577 -0.5618346653831735 -0.02362340773821365 0.10341685282311082
 0.1507595202109117 0.22920890628006885 0.15075952021091255 0.22920890628010182 -0.023623407738213635 0.10341685282311079 0.7221043673164124 -0.5618346653830824
38000000.0 0.7064558917784413 -0.5768704864130332 -0.013577002226940143 0.11607016778605611 0.15356055522423623 0.23040015931350588 0.15356055522423237 0.23040015931352803
 -0.013577002226940152 0.11607016778605606 0.7064558917785169 -0.5768704864129187 0.1535605552242293 0.23040015931353092 0.15356055522423334 0.2304001593135615
 0.15356055522423617 0.23040015931350583 0.15356055522422934 0.23040015931353094 0.7163389402370066 -0.566314506893247 -0.023460050685504354 0.10551418826626778
 0.15356055522423226 0.23040015931352786 0.15356055522423323 0.2304001593135613 -0.02346005068550432 0.10551418826626771 0.7163389402370621 -0.566314506893155
38500000.0 0.7004907004348168 -0.581280400553029 -0.013197037440972817 0.11818431148160602 0.1563531685030646 0.23154804453572916 0.15635316850306077 0.23154804453575173
 -0.013197037440972805 0.118184311481606 0.7004907004348938 -0.5812804005529139 0.1563531685030576 0.23154804453575462 0.1563531685030619 0.23154804453578576
 0.15635316850306447 0.23154804453572903 0.15635316850305764 0.23154804453575467 0.7105632111629538 -0.5707134980819601 -0.023269548169108947 0.10761740901053495
 0.1563531685030607 0.23154804453575156 0.15635316850306177 0.23154804453578556 -0.023269548169108943 0.10761740901053492 0.7105632111630111 -0.5707134980818679
39000000.0 0.6945169872155752 -0.5856066757022381 -0.01279036124040059 0.12030018861597098 0.1591366870123987 0.2326532435431514 0.15913668701239495 0.23265324354317438
 -0.01279036124040059 0.12030018861597098 0.6945169872156537 -0.5856066757021223 0.15913668701239178 0.23265324354317748 0.1591366870123963 0.232653243543209
 0.1591366870123986 0.23265324354315128 0.15913668701239184 0.2326532435431775 0.7047784447154147 -0.5750322701684498 -0.02305181874023927 0.10972578308218058
 0.15913668701239486 0.2326532435431743 0.15913668701239614 0.23265324354320885 -0.023051818740239264 0.10972578308218053 0.7047784447154729 -0.5750322701683569
39500000.0 0.6885360518859814 -0.5898499925430423 -0.012356981653994042 0.12241710717147372 0.16191046488399188 0.23371644268580252 0.16191046488398814 0.2337164426858259
 -0.012356981653994027 0.12241710717147371 0.6885360518860615 -0.5898499925429264 0.16191046488398508 0.2337164426858291 0.16191046488398972 0.233716442685861
 0.16191046488399174 0.23371644268580236 0.16191046488398514 0.2337164426858292 0.6989858750636008 -0.5792714698309306 -0.022806804831612352 0.11183858445935961
 0.1619104648839881 0.23371644268582578 0.16191046488398964 0.2337164426858609 -0.02280680483161233 0.11183858445935957 0.6989858750636598 -0.5792714698308371
40000000.0 0.6825491625710622 -0.5940110474060967 -0.011896928564344851 0.12453438306148772 0.16467388299662655 0.23473833217232304 0.1646738829966228 0.23473833217234677
 -0.011896928564344848 0.12453438306148769 0.6825491625711438 -0.59401104740598 0.16467388299661972 0.23473833217235016 0.16467388299662455 0.2347383321723824
 0.16467388299662641 0.23473833217232293 0.16467388299661978 0.23473833217235018 0.6931867061403206 -0.5834317581450073 -0.02253447213360202 0.11395509380039599
 0.16467388299662278 0.23473833217234671 0.16467388299662447 0.23473833217238227 -0.02253447213360202 0.11395509380039597 0.6931867061403806 -0.5834317581449132
40500000.0 0.6765575559795827 -0.5980905511892054 -0.01141025305070378 0.12665134076556905 0.16742634853554542 0.23571960521183696 0.16742634853554172 0.23571960521186117
 -0.011410253050703765 0.12665134076556903 0.6765575559796657 -0.5980905511890883 0.16742634853553864 0.23571960521186464 0.16742634853554372 0.2357196052118974
 0.1674263485355453 0.23571960521183682 0.16742634853553875 0.23571960521186475 0.6873821118849665 -0.5875138095553218 -0.022234808956086493 0.11607459913168316
 0.1674263485355417 0.23571960521186108 0.1674263485355436 0.23571960521189722 -0.02223480895608647 0.11607459913168314 0.6873821118850276 -0.5875138095552274
41000000.0 0.6705624376552562 -0.6020892283096351 -0.01089702672155677 0.1287673139247677 0.17016729453313473 0.23666095719245275 0.17016729453313123 0.23666095719247746
 -0.01089702672155675 0.12876731392476765 0.6705624376553404 -0.6020892283095175 0.17016729453312807 0.23666095719248098 0.17016729453313334 0.2366609571925141
 0.17016729453313464 0.23666095719245275 0.17016729453312812 0.23666095719248106 0.6815732365118115 -0.5915183108805422 -0.021907825578110846 0.1181963964956726
 0.1701672945331311 0.23666095719247732 0.17016729453313323 0.23666095719251395 -0.02190782557811087 0.11819639649567254 0.6815732365118731 -0.5915183108804472
41500000.0 0.6645649822531595 -0.6060078156898515 -0.010357341038936747 0.13088164589774196 0.17289617939287263 0.23756308489607428 0.17289617939286925 0.23756308489609937
 -0.01035734103893673 0.1308816458977419 0.6645649822532448 -0.6060078156897334 0.17289617939286606 0.23756308489610295 0.17289617939287155 0.2375630848961365
 0.17289617939287255 0.23756308489607417 0.1728961793928661 0.23756308489610306 0.6757611948016183 -0.5954459603516198 -0.02155355358739428 0.12031979055950778
 0.1728961793928691 0.2375630848960992 0.17289617939287147 0.23756308489613634 -0.02155355358739428 0.12031979055950777 0.6757611948016813 -0.5954459603515245
42000000.0 0.6585663338393902 -0.6098470617765883 -0.009791306636375816 0.13299369027837737 0.17561248639847643 0.23842668574912523 0.17561248639847307 0.2384266857491507
 -0.009791306636375804 0.13299369027837735 0.6585663338394768 -0.6098470617764697 0.1756124863984699 0.23842668574915446 0.17561248639847568 0.23842668574918843
 0.17561248639847635 0.2384266857491251 0.17561248639847002 0.23842668574915454 0.6699470724146371 -0.599297466683152 -0.021172045211621596 0.12244409518493846
 0.17561248639847302 0.2384266857491506 0.17561248639847557 0.23842668574918824 -0.021172045211621617 0.1224440951849384 0.6699470724147012 -0.5992974666830562
42500000.0 0.6525676062120799 -0.6136077255930683 -0.009199052632310335 0.13510281137567648 0.17831572321009856 0.23925245710871607 0.1783157232100952 0.23925245710874193
 -0.009199052632310335 0.13510281137567645 0.6525676062121677 -0.6136077255929492 0.17831572321009212 0.23925245710874585 0.178315723210098 0.23925245710878018
 0.17831572321009845 0.23925245710871587 0.17831572321009215 0.23925245710874582 0.6641319262231381 -0.6030735481776146 -0.02076337264336765 0.12456863396022011
 0.17831572321009512 0.23925245710874188 0.17831572321009792 0.23925245710878004 -0.020763372643367625 0.12456863396022008 0.6641319262232034 -0.6030735481775182
43000000.0 0.6465698832419476 -0.6172905758241339 -0.008580725940656923 0.13720838465674856 0.18100542134933748 0.24004109558371306 0.18100542134933434 0.24004109558373954
 -0.008580725940656918 0.13720838465674853 0.6465698832420369 -0.6172905758240144 0.18100542134933115 0.2400410955837434 0.1810054213493374 0.24004109558377829
 0.18100542134933742 0.240041095583713 0.18100542134933117 0.24004109558374345 0.6583167846617032 -0.6067749318621558 -0.020327627360411465 0.12669274069476794
 0.1810054213493342 0.24004109558373934 0.18100542134933725 0.24004109558377806 -0.020327627360411434 0.12669274069476782 0.6583167846617696 -0.6067749318620592
43500000.0 0.6405742192306566 -0.6208963899339679 -0.00793649058018628 0.13930979715378136 0.1836811356747474 0.24079329639011407 0.18368113567474423 0.24079329639014083
 -0.007936490580186256 0.13930979715378133 0.6405742192307473 -0.6208963899338481 0.1836811356747411 0.24079329639014485 0.18368113567474756 0.2407932963901801
 0.18368113567474728 0.24079329639011396 0.18368113567474112 0.24079329639014493 0.6525026480935784 -0.6104023526575776 -0.019864919443107143 0.12881575987738839
 0.18368113567474412 0.24079329639014063 0.18368113567474742 0.2407932963901799 -0.019864919443107105 0.1288157598773883 0.6525026480936454 -0.6104023526574804
44000000.0 0.6345816392853025 -0.6244259533160327 -0.007266526984227735 0.14140644783592352 0.18634244384944468 0.24150975274007574 0.1863424438494416 0.24150975274010286
 -0.007266526984227741 0.14140644783592352 0.6345816392853945 -0.6244259533159124 0.1863424438494385 0.24150975274010714 0.1863424438494451 0.2415097527401427
 0.1863424438494446 0.24150975274007563 0.18634244384943857 0.24150975274010716 0.6466904891914617 -0.6139565525790767 -0.0193753768903858 0.13093704709896464
 0.1863424438494415 0.2415097527401028 0.18634244384944496 0.24150975274014252 -0.01937537689038581 0.13093704709896456 0.6466904891915297 -0.6139565525789789
44500000.0 0.6285931397074488 -0.6278800584747979 -0.006571031312147412 0.14349774794704806 0.1889889458023308 0.24219115526389648 0.1889889458023279 0.2421911552639241
 -0.006571031312147392 0.14349774794704803 0.6285931397075423 -0.6278800584746776 0.1889889458023248 0.2421911552639284 0.18898894580233172 0.2421911552639644
 0.1889889458023307 0.24219115526389634 0.18898894580232484 0.2421911552639284 0.6408812533311772 -0.6174382799682645 -0.01885914493587464 0.13305596944051168
 0.18898894580232778 0.24219115526392393 0.18898894580233158 0.2421911552639642 -0.01885914493587464 0.1330559694405116 0.6408812533312465 -0.6174382799681667
45000000.0 0.6226096883951862 -0.6312595042387787 -0.00585021476395241 0.1455831213104007 0.1916202631843643 0.24283819146421085 0.19162026318436146 0.24283819146423896
 -0.0058502147639523825 0.1455831213104007 0.6226096883952806 -0.6312595042386578 0.19162026318435832 0.24283819146424324 0.19162026318436548 0.24283819146427965
 0.19162026318436423 0.2428381914642108 0.19162026318435835 0.24283819146424326 0.6350758589967644 -0.6208482887559378 -0.018316385365529774 0.1351719058275571
 0.19162026318436137 0.2428381914642388 0.19162026318436537 0.2428381914642795 -0.01831638536552977 0.135171905827557 0.6350758589968349 -0.6208482887558396
45500000.0 0.6166322252567716 -0.6345650950043616 -0.005104302899285035 0.14766200460116644 0.19423603882123733 0.24345154520161996 0.19423603882123458 0.24345154520164838
 -0.005104302899285018 0.14766200460116638 0.6166322252568678 -0.6345650950042406 0.19423603882123147 0.24345154520165288 0.1942360388212388 0.2434515452016896
 0.19423603882123716 0.24345154520161982 0.1942360388212315 0.2434515452016529 0.6292751981955802 -0.6241873377550315 -0.0177472758380923 0.1372842473518332
 0.1942360388212345 0.24345154520164827 0.1942360388212387 0.24345154520168946 -0.017747275838092293 0.13728424735183317 0.6292751981956513 -0.624187337754933
46000000.0 0.6106616626344801 -0.6377976400098655 -0.004333534961984469 0.14973384758801198 0.19683593616373254 0.2440318962109494 0.1968359361637299 0.24403189621097834
 -0.004333534961984461 0.14973384758801198 0.6106616626345771 -0.637797640009744 0.19683593616372685 0.2440318962109829 0.19683593616373446 0.2440318962110201
 0.1968359361637325 0.24403189621094937 0.19683593616372688 0.2440318962109829 0.6234801368820884 -0.6274561899831507 -0.017152009209591597 0.139392397561294
 0.19683593616372977 0.24403189621097812 0.1968359361637343 0.24403189621101987 -0.017152009209591566 0.1393923975612939 0.6234801368821603 -0.6274561899830514
46500000.0 0.6046988857373561 -0.6409579526392336 -0.003538163211308921 0.1517981133446779 0.19941963873695617 0.24457991964730078 0.19941963873695367 0.24457991964733014
 -0.0035381632113088935 0.1517981133446779 0.6046988857374549 -0.6409579526391118 0.19941963873695062 0.24457991964733483 0.19941963873695848 0.24457991964737238
 0.19941963873695603 0.24457991964730064 0.19941963873695054 0.24457991964733478 0.6176915153890838 -0.6306556120140473 -0.016530792863035607 0.14149577271948846
 0.1994196387369536 0.24457991964733003 0.19941963873695834 0.24457991964737227 -0.016530792863035607 0.14149577271948846 0.6176915153891575 -0.630655612013948
47000000.0 0.5987447530816479 -0.6440468497547459 -0.0027184522608285737 0.15385427843271055 0.2019868495895696 0.2450962856610412 0.20198684958956725 0.2450962856610709
 -0.0027184522608285633 0.1538542784327105 0.5987447530817477 -0.6440468497546243 0.2019868495895642 0.2450962856610757 0.20198684958957241 0.24509628566111363
 0.20198684958956944 0.24509628566104105 0.20198684958956428 0.24509628566107575 0.6119101488651678 -0.6337863733573811 -0.015883848044347202 0.1435938020353424
 0.20198684958956714 0.2450962856610707 0.20198684958957222 0.24509628566111344 -0.015883848044347195 0.14359380203534225 0.6119101488652419 -0.6337863733572817
47500000.0 0.5928000969377437 -0.6470651510581004 -0.001874678425919909 0.15590183305643074 0.20453729074406704 0.24558165900085843 0.20453729074406482 0.24558165900088857
 -0.0018746784259198765 0.1559018330564307 0.5928000969378449 -0.647065151057978 0.20453729074406174 0.24558165900089352 0.2045372907440703 0.24558165900093185
 0.20453729074406693 0.24558165900085835 0.20453729074406182 0.24558165900089354 0.6061368277173496 -0.6368492458660806 -0.015211409205524839 0.145685927864408
 0.20453729074406474 0.24558165900088844 0.20453729074407018 0.24558165900093176 -0.01521140920552484 0.14568592786440795 0.6061368277174247 -0.6368492458659809
48000000.0 0.5868657237825249 -0.6500136784791914 -0.0010071290807143576 0.15794028119124326 0.20707070264907315 0.2460366986439981 0.20707070264907118 0.24603669864402877
 -0.0010071290807143086 0.15794028119124318 0.5868657237826272 -0.6500136784790693 0.20707070264906802 0.24603669864403366 0.20707070264907693 0.2460366986440725
 0.20707070264907307 0.24603669864399808 0.20707070264906818 0.24603669864403382 0.6003723180577418 -0.6398450031706034 -0.014513723355930519 0.14777160588265223
 0.207070702649071 0.24603669864402852 0.2070707026490768 0.2460366986440724 -0.014513723355930477 0.14777160588265212 0.6003723180578181 -0.6398450031705035
48500000.0 0.5809424147560973 -0.6528932555919155 -0.00011610202527943495 0.15996914068639081 0.20958684363456923 0.24646205745278665 0.20958684363456728 0.2464620574528177
 -0.0001161020252794115 0.15996914068639076 0.5809424147562006 -0.6528932555917925 0.20958684363456417 0.24646205745282274 0.2095868436345731 0.2464620574528618
 0.20958684363456914 0.24646205745278657 0.20958684363456423 0.24646205745282282 0.5946173621533501 -0.6427744201393819 -0.013791049422531709 0.14985030523385434
 0.20958684363456723 0.24646205745281763 0.209586843634573 0.2464620574528617 -0.013791049422531692 0.14985030523385431 0.5946173621534274 -0.6427744201392817
49000000.0 0.5750309261219295 -0.6557047070562874 0.0007980951362617507 0.16198794334325398 0.21208548937088187 0.2468583818565416 0.21208548937087995 0.246858381856573
 0.0007980951362617703 0.1619879433432539 0.5750309261220343 -0.6557047070561645 0.21208548937087704 0.2468583818565782 0.21208548937088634 0.2468583818566178
 0.21208548937088167 0.24685838185654144 0.2120854893708771 0.2468583818565782 0.5888726788780458 -0.6456382723647248 -0.013043657619853604 0.15192150865168785
 0.21208548937087984 0.24685838185657286 0.21208548937088614 0.24685838185661763 -0.013043657619853606 0.15192150865168783 0.5888726788781242 -0.6456382723646239
49500000.0 0.5691319897294909 -0.6584488580861795 0.0017351456060364543 0.16399623497029464 0.21456643233221342 0.2472263115579678 0.21456643233221173 0.24722631155799957
 0.0017351456060364712 0.1639962349702946 0.5691319897295969 -0.6584488580860565 0.21456643233220873 0.24722631155800484 0.21456643233221823 0.24722631155804475
 0.21456643233221326 0.2472263115579676 0.21456643233220876 0.24722631155800484 0.5831389641658555 -0.6484373356734427 -0.012271828830327144 0.15398471255755453
 0.21456643233221157 0.24722631155799935 0.21456643233221812 0.2472263115580446 -0.012271828830327161 0.1539847125575545 0.5831389641659346 -0.6484373356733417
50000000.0 0.5632463134785317 -0.661126533941951 0.0026947239905833298 0.16599357541572926 0.217029481265419 0.2475664792631365 0.2170294812654175 0.24756647926316877
 0.0026947239905833454 0.1659935754157292 0.5632463134786391 -0.6611265339418277 0.21702948126541458 0.24756647926317418 0.21702948126542437 0.2475664792632144
 0.21702948126541885 0.2475664792631364 0.21702948126541466 0.24756647926317427 0.5774168914647694 -0.6511723856614602 -0.011475853995653191 0.15603942713523514
 0.21702948126541735 0.24756647926316858 0.2170294812654243 0.24756647926321423 -0.011475853995653177 0.15603942713523505 0.5774168914648493 -0.6511723856613592
50500000.0 0.5573745817842201 -0.6637385594472609 0.0036764968863626348 0.16797953857900857 0.2194744606646848 0.24787951043415232 0.21947446066468343 0.24787951043418496
 0.003676496886362677 0.16797953857900852 0.5573745817843287 -0.6637385594471376 0.21947446066468046 0.24787951043419043 0.21947446066469062 0.24787951043423104
 0.2194744606646846 0.24787951043415213 0.21947446066468057 0.24787951043419054 0.5717071121903224 -0.6538441972516661 -0.010656033519738619 0.15808517638341033
 0.2194744606646833 0.24787951043418482 0.21947446066469048 0.24787951043423095 -0.010656033519738628 0.15808517638341024 0.5717071121904035 -0.6538441972515647
51000000.0 0.5515174560423843 -0.6662857585293368 0.004680123452170849 0.16995371240216645 0.22190121025269818 0.2481660230636118 0.22190121025269682 0.24816602306364482
 0.004680123452170892 0.16995371240216636 0.5515174560424942 -0.6662857585292135 0.22190121025269405 0.24816602306365043 0.22190121025270443 0.24816602306369137
 0.22190121025269796 0.2481660230636116 0.22190121025269416 0.24816602306365051 0.5660102561782551 -0.6564535442742687 -0.009812676683698953 0.16012149814709445
 0.2219012102526967 0.2481660230636447 0.22190121025270435 0.24816602306369126 -0.009812676683698986 0.1601214981470944 0.5660102561783372 -0.6564535442741669
51500000.0 0.545675575094179 -0.6687689537819811 0.005705255968071509 0.17191569884208452 0.22430958446884997 0.24842662746997524 0.224309584468849 0.24842662747000865
 0.005705255968071524 0.17191569884208446 0.54567557509429 -0.6687689537818574 0.22430958446884605 0.24842662747001446 0.2243095844688568 0.24842662747005576
 0.22430958446884983 0.24842662746997504 0.22430958446884616 0.24842662747001446 0.5603269321356162 -0.6590011990689129 -0.008946101073364864 0.16214794412901262
 0.22430958446884888 0.24842662747000852 0.22430958446885665 0.2484266274700556 -0.008946101073364871 0.16214794412901257 0.5603269321356992 -0.6590011990688112
52000000.0 0.5398495556895337 -0.671188966050592 0.006751540380511115 0.17386511382469952 0.2266994519649523 0.24866192611297364 0.22669945196495142 0.24866192611300753
 0.006751540380511124 0.17386511382469946 0.539849555689646 -0.6711889660504683 0.22669945196494865 0.24866192611301338 0.22669945196495966 0.24866192611305507
 0.22669945196495214 0.24866192611297347 0.22669945196494865 0.24866192611301333 0.5546577280897179 -0.6614879321078275 -0.008056632019672319 0.16416407988193138
 0.22669945196495123 0.2486619261130073 0.22669945196495953 0.2486619261130549 -0.008056632019672343 0.1641640798819313 0.554657728089802 -0.6614879321077255
52500000.0 0.5340399929487937 -0.673546614038492 0.007818616833339858 0.17580158718216338 0.22907069510890743 0.24887251342819192 0.22907069510890687 0.24887251342822633
 0.007818616833339878 0.17580158718216332 0.5340399929489069 -0.673546614038368 0.22907069510890396 0.2488725134282322 0.2290706951089154 0.24887251342827424
 0.22907069510890737 0.2488725134281919 0.22907069510890404 0.24887251342823222 0.549003211834401 -0.6639145116392727 -0.007144602052266821 0.16616948478294077
 0.22907069510890676 0.24887251342822614 0.22907069510891528 0.24887251342827416 -0.007144602052266807 0.16616948478294064 0.549003211834486 -0.6639145116391707
53000000.0 0.528247460822006 -0.6758427139338472 0.008906120184506714 0.17772476257394235 0.23142320949671738 0.24905897567998062 0.23142320949671688 0.24905897568001534
 0.008906120184506722 0.17772476257394224 0.5282474608221205 -0.6758427139337232 0.231423209496714 0.24905897568002133 0.23142320949672568 0.2490589756800637
 0.23142320949671716 0.24905897567998048 0.23142320949671408 0.2490589756800214 0.5433639313731119 -0.6662817033505706 -0.006210350366598288 0.1681637519906622
 0.23142320949671666 0.24905897568001506 0.2314232094967256 0.2490589756800635 -0.006210350366598253 0.1681637519906621 0.5433639313731975 -0.6662817033504684
53500000.0 0.5224725125453533 -0.6780780790564852 0.010013680508246305 0.1796342973928193 0.2337569034731736 0.24922189083186155 0.2337569034731733 0.2492218908318967
 0.01001368050824634 0.17963429739281925 0.5224725125454687 -0.6780780790563609 0.23375690347317044 0.24922189083190274 0.23375690347318243 0.24922189083194551
 0.23375690347317343 0.24922189083186144 0.23375690347317057 0.24922189083190283 0.5377404153583393 -0.6685902700500075 -0.005254222304739006 0.17014648838633809
 0.23375690347317316 0.2492218908318965 0.23375690347318226 0.24922189083194535 -0.0052542223047389956 0.170146488386338 0.537740415358426 -0.6685902700499049
54000000.0 0.5167156810942689 -0.6802535195239108 0.01114092358261675 0.18152986265673993 0.23607169766153013 0.24936182843361462 0.2360716976615299 0.24936182843365007
 0.011140923582616771 0.18152986265673982 0.5167156810943856 -0.6802535195237868 0.23607169766152733 0.24936182843365626 0.23607169766153951 0.24936182843369933
 0.23607169766152997 0.24936182843361449 0.23607169766152744 0.24936182843365637 0.5321331735269966 -0.67084097136691 -0.004276568850110312 0.1721173144997352
 0.23607169766152972 0.2493618284336499 0.23607169766153932 0.24936182843369922 -0.004276568850110322 0.17211731449973508 0.5321331735270841 -0.6708409713668069
54500000.0 0.5109774796328199 -0.6823698419358474 0.012287471362291297 0.18341114288741772 0.23836752450241677 0.2494793495242444 0.23836752450241677 0.24947934952428016
 0.012287471362291316 0.18341114288741775 0.5109774796329376 -0.6823698419357228 0.2383675245024142 0.24947934952428658 0.23836752450242668 0.24947934952432993
 0.2383675245024166 0.24947934952424422 0.2383675245024142 0.2494793495242865 0.5265426971313755 -0.6730345634692062 -0.0032777461362635467 0.1740758644207727
 0.23836752450241666 0.24947934952428008 0.23836752450242646 0.24947934952432976 -0.0032777461362635514 0.1740758644207727 0.5265426971314638 -0.6730345634691031
55000000.0 0.5052584019589681 -0.6844278490766255 0.013452942436544331 0.18527783597658903 0.24064432780221567 0.24957500655004827 0.24064432780221592 0.24957500655008463
 0.013452942436544315 0.185277835976589 0.5052584019590873 -0.6844278490765013 0.24064432780221343 0.24957500655009107 0.24064432780222625 0.24957500655013487
 0.24064432780221548 0.24957500655004816 0.24064432780221348 0.24957500655009113 0.5209694593653313 -0.6751717987978018 -0.0022581149698184823 0.17602178569776128
 0.24064432780221579 0.24957500655008447 0.24064432780222605 0.24957500655013465 -0.0022581149698184836 0.17602178569776122 0.5209694593654209 -0.6751717987976986
55500000.0 0.499558922945363 -0.6864283396347668 0.014636952472408184 0.18712965304077744 0.24290206229108569 0.24964934329702515 0.24290206229108607 0.24964934329706182
 0.014636952472408217 0.18712965304077733 0.49955892294548343 -0.6864283396346427 0.2429020622910836 0.24964934329706837 0.24290206229109673 0.2496493432971124
 0.24290206229108552 0.24964934329702512 0.24290206229108374 0.24964934329706853 0.5154139157854012 -0.6772534258171051 -0.001218040367629132 0.17795473922311172
 0.242902062291086 0.2496493432970617 0.2429020622910966 0.24964934329711236 -0.0012180403676291507 0.17795473922311164 0.5154139157854913 -0.6772534258170019
56000000.0 0.493879498975356 -0.6883721079391132 0.015839114643011992 0.1889663182654086 0.24514069319078677 0.24970289483688324 0.24514069319078743 0.24970289483692032
 0.015839114643012013 0.18896631826540852 0.49387949897547706 -0.6883721079389888 0.24514069319078494 0.24970289483692693 0.24514069319079837 0.24970289483697125
 0.24514069319078663 0.24970289483688313 0.24514069319078505 0.24970289483692698 0.5098765047265775 -0.6792801887810614 -0.00015789110820864624 0.17987439910735262
 0.24514069319078735 0.24970289483692026 0.2451406931907983 0.24970289483697122 -0.00015789110820866713 0.1798743991073526 0.5098765047266688 -0.679280188780958
56500000.0 0.4882205683739447 -0.6902599437108742 0.017059040041144634 0.19078756873908007 0.24736019579242555 0.2497361874859284 0.2473601957924264 0.24973618748596585
 0.017059040041144658 0.19078756873908 0.4882205683740673 -0.6902599437107496 0.24736019579242383 0.24973618748597254 0.2473601957924378 0.2497361874860173
 0.24736019579242544 0.24973618748592827 0.24736019579242396 0.2497361874859726 0.5043576477125047 -0.6812528275140618 0.0009219607025852295 0.18178045254226385
 0.2473601957924263 0.24973618748596574 0.24736019579243754 0.24973618748601717 0.0009219607025852097 0.18178045254226377 0.504357647712597 -0.6812528275139583
57000000.0 0.482582551833402 -0.6920926318309721 0.018296338078112883 0.1925931542787693 0.24956055504421226 0.24974973877613338 0.24956055504421332 0.2497497387761712
 0.018296338078112914 0.19259315427876916 0.4825825518335256 -0.6920926318308478 0.2495605550442109 0.24974973877617798 0.24956055504422503 0.24974973877622303
 0.24956055504421207 0.2497497387761332 0.249560555044211 0.24974973877617804 0.4988577498598821 -0.6831720772061186 0.002021140051633608 0.18367259965391144
 0.24956055504421318 0.24974973877617107 0.24956055504422495 0.24974973877622295 0.002021140051633546 0.1836725996539114 0.4988577498599752 -0.6831720772060148
57500000.0 0.47696585283335996 -0.693870952122086 0.01955061686799344 0.19438283724673178 0.25174176514929264 0.24974405743770953 0.2517417651492939 0.24974405743774775
 0.019550616867993465 0.19438283724673175 0.47696585283348436 -0.6938709521219617 0.2517417651492915 0.24974405743775463 0.2517417651493059 0.24974405743779993
 0.25174176514929253 0.24974405743770953 0.2517417651492916 0.24974405743775469 0.49337720027688925 -0.6850386682216981 0.0031392694244649568 0.18555055334633977
 0.2517417651492938 0.24974405743774758 0.2517417651493058 0.24974405743779973 0.0031392694244649407 0.18555055334633963 0.4933772002769828 -0.6850386682215945
58000000.0 0.4713708580551498 -0.6955956791448022 0.020821483597401585 0.19615639235981566 0.2539038291736931 0.24971964339252625 0.25390382917369464 0.24971964339256486
 0.020821483597401606 0.19615639235981555 0.47137085805527545 -0.6955956791446778 0.25390382917369214 0.24971964339257183 0.2539038291737072 0.24971964339261754
 0.25390382917369286 0.24971964339252603 0.2539038291736923 0.24971964339257186 0.4879163724554786 -0.6868533259216435 0.004275969197073511 0.1874140391366526
 0.2539038291736945 0.2497196433925647 0.25390382917370696 0.24971964339261735 0.0042759691970735226 0.1874140391366525 0.48791637245557323 -0.6868533259215398
58500000.0 0.46579793779022766 -0.6972675820073059 0.02210854488092254 0.19791360649188794 0.2560467586643932 0.24967698775774233 0.25604675866439497 0.2496769877577813
 0.02210854488092254 0.1979136064918879 0.46579793779035417 -0.6972675820071814 0.2560467586643926 0.2496769877577884 0.25604675866440774 0.24967698775783434
 0.2560467586643931 0.24967698775774222 0.2560467586643927 0.24967698775778846 0.48247562465739874 -0.6886167704976088 0.005430858013751973 0.18926279498218665
 0.25604675866439486 0.24967698775778122 0.2560467586644076 0.24967698775783417 0.005430858013751964 0.18926279498218657 0.4824756246574943 -0.688616770497505
59000000.0 0.4602474463425275 -0.6988874241880528 0.023411407102372127 0.19965427847004502 0.258170573277518 0.24961657285903774 0.25817057327751985 0.24961657285907712
 0.023411407102372155 0.19965427847004497 0.46024744634265524 -0.6988874241879283 0.2581705732775177 0.24961657285908426 0.2581705732775331 0.24961657285913055
 0.25817057327751775 0.2496165728590376 0.25817057327751763 0.24961657285908426 0.47705530029383114 -0.6903297168184673 0.006603553151069041 0.1910965711004552
 0.2581705732775198 0.24961657285907699 0.25817057327753296 0.2496165728591304 0.006603553151069055 0.19109657110045514 0.4770553002939278 -0.6903297168183633
59500000.0 0.45471972242462033 -0.7004559633708828 0.024729676742072614 0.20137821886524485 0.2602753004166207 0.24953887225285334 0.26027530041662295 0.2495388722528931
 0.024729676742072586 0.20137821886524473 0.454719722424749 -0.7004559633707583 0.2602753004166207 0.24953887225290033 0.26027530041663655 0.24953887225294688
 0.2602753004166206 0.24953887225285318 0.2602753004166209 0.2495388722529004 0.4716557282985541 -0.6919928742881539 0.007793670868139433 0.19291512978251135
 0.2602753004166228 0.24953887225289292 0.2602753004166363 0.24953887225294677 0.007793670868139407 0.19291512978251124 0.4716557282986515 -0.6919928742880497
60000000.0 0.4492150895475625 -0.7019739512920516 0.0260629606903463 0.2030852497779799 0.2623609748810123 0.24944435075707075 0.26236097488101484 0.24944435075711094
 0.026062960690346304 0.20308524977797976 0.44921508954769224 -0.7019739512919274 0.2623609748810126 0.2494443507571182 0.2623609748810288 0.24944435075716503
 0.26236097488101223 0.24944435075707067 0.2623609748810128 0.24944435075711832 0.4662772234945564 -0.6936069467144348 0.009000826743353082 0.19471824520035863
 0.26236097488101456 0.2494443507571107 0.2623609748810286 0.2494443507571649 0.009000826743353094 0.19471824520035846 0.4662772234946543 -0.6936069467143307
60500000.0 0.44373385640434787 -0.7034421335986694 0.027410866547445168 0.20477520461957427 0.2644276385240698 0.2493334644895829 0.2644276385240724 0.2493334644896234
 0.02741086654744522 0.2047752046195742 0.44373385640447877 -0.7034421335985449 0.26442763852407025 0.24933346448963073 0.2644276385240867 0.24933346448967786
 0.2644276385240696 0.24933346448958274 0.2644276385240703 0.2493334644896308 0.4609200869540453 -0.6951726321881031 0.01022463599774837 0.19650570320900343
 0.26442763852407225 0.24933346448962318 0.26442763852408646 0.2493334644896777 0.010224635997748397 0.19650570320900335 0.4609200869541441 -0.6951726321879989
61000000.0 0.4382763172468886 -0.7048612497180563 0.028773002910149344 0.2064479278896693 0.2664753399214467 0.24920666091422958 0.26647533992144956 0.2492066609142703
 0.028773002910149365 0.20644792788966929 0.43827631724702054 -0.7048612497179325 0.2664753399214477 0.24920666091427782 0.2664753399214644 0.24920666091432525
 0.26647533992144656 0.24920666091422944 0.26647533992144773 0.24920666091427787 0.45558460635181286 -0.6966906229721185 0.01146471380522558 0.19827730114372666
 0.2664753399214495 0.2492066609142702 0.2664753399214643 0.24920666091432517 0.011464713805225554 0.19827730114372663 0.4555846063519126 -0.6966906229720141
61500000.0 0.4328427522564671 -0.7062320327375393 0.030148979645277844 0.2081032749504292 0.26850413404909274 0.2490643788935915 0.26850413404909595 0.24906437889363275
 0.03014897964527783 0.20810327495042913 0.43284275225659985 -0.7062320327374151 0.26850413404909373 0.24906437889364033 0.26850413404911105 0.24906437889368804
 0.2685041340490925 0.24906437889359134 0.2685041340490939 0.24906437889364033 0.4502710563119302 -0.6981616054002334 0.012720675589815156 0.20003284761311882
 0.26850413404909584 0.24906437889363262 0.2685041340491108 0.24906437889368788 0.01272067558981512 0.20003284761311874 0.45027105631203107 -0.6981616054001293
62000000.0 0.42743342790761896 -0.7075552092942214 0.03153840815036821 0.20974111179797764 0.270514081970971 0.24890704874815878 0.27051408197097443 0.24890704874820027
 0.031538408150368236 0.2097411117979776 0.4274334279077527 -0.7075552092940972 0.2705140819709725 0.24890704874820807 0.27051408197099 0.24890704874825598
 0.2705140819709709 0.24890704874815867 0.2705140819709726 0.24890704874820813 0.44497969874776533 -0.6995862597846506 0.01399213731022237 0.20177216228840256
 0.2705140819709744 0.24890704874820022 0.27051408197098986 0.24890704874825587 0.013992137310222317 0.20177216228840245 0.44497969874786664 -0.6995862597845465
62500000.0 0.4220485973254174 -0.7088314994742889 0.03294090160178904 0.21136131483154924 0.27250525053636093 0.24873509232140723 0.27250525053636465 0.24873509232144927
 0.03294090160178904 0.21136131483154916 0.42204859732555233 -0.7088314994741647 0.27250525053636265 0.24873509232145702 0.27250525053638064 0.24873509232150537
 0.27250525053636077 0.24873509232140717 0.27250525053636276 0.24873509232145705 0.439710783195322 -0.7009652603322866 0.015278715731884811 0.20349507568954242
 0.2725052505363645 0.24873509232144908 0.2725052505363805 0.24873509232150523 0.015278715731884806 0.2034950756895423 0.43971078319542445 -0.7009652603321824
63000000.0 0.4166885006361454 -0.710061616721417 0.034356075190559006 0.2129637706208129 0.2744777120866115 0.24854892305034 0.2744777120866155 0.2485489230503824
 0.03435607519055904 0.21296377062081284 0.41668850063628116 -0.710061616721293 0.27447771208661353 0.24854892305039014 0.2744777120866318 0.2485489230504387
 0.2744777120866113 0.24854892305033993 0.27447771208661365 0.24854892305039025 0.4344645471399194 -0.7022992750692224 0.01658002868678523 0.20520142896861374
 0.27447771208661526 0.24854892305038215 0.2744777120866316 0.24854892305043855 0.016580028686785233 0.20520142896861351 0.4344645471400225 -0.7022992750691182
63500000.0 0.4113533653113508 -0.7112462677538625 0.03578354634615265 0.21454837567180568 0.27643154417121135 0.24834894604106708 0.27643154417121557 0.24834894604110969
 0.03578354634615262 0.21454837567180557 0.4113533653114875 -0.7112462677537388 0.2764315441712138 0.24834894604111765 0.2764315441712323 0.2483489460411664
 0.27643154417121113 0.24834894604106686 0.2764315441712138 0.2483489460411176 0.42924121633623086 -0.7035889657729459 0.017895695321272942 0.20689107369088416
 0.27643154417121535 0.24834894604110955 0.2764315441712321 0.24834894604116628 0.01789569532127289 0.20689107369088408 0.42924121633633483 -0.7035889657728415
64000000.0 0.40604340650529536 -0.7123861524898425 0.037222934948578174 0.2161150361918853 0.27836682927302586 0.2481355581490177 0.27836682927303025 0.2481355581490608
 0.037222934948578194 0.21611503619188524 0.4060434065054331 -0.7123861524897186 0.27836682927302847 0.24813555814906865 0.27836682927304734 0.24813555814911778
 0.27836682927302564 0.2481355581490176 0.27836682927302847 0.2481355581490687 0.4240410051217213 -0.7048349879119967 0.019225336332152433 0.20856387161403472
 0.27836682927303 0.24813555814906058 0.2783668292730472 0.24813555814911764 0.0192253363321524 0.2085638716140346 0.4240410051218262 -0.7048349879118921
64500000.0 0.4007588273858099 -0.7134819639808105 0.03867386352901949 0.21766366785409308 0.28028365454254733 0.24790914806339837 0.28028365454255205 0.2479091480634418
 0.03867386352901949 0.21766366785409297 0.4007588273859485 -0.7134819639806869 0.2802836545425503 0.2479091480634498 0.28028365454256965 0.24790914806349917
 0.28028365454254717 0.24790914806339828 0.28028365454255044 0.2479091480634498 0.4188641167235255 -0.706037990592649 0.020568574191304114 0.21021969446592662
 0.28028365454255194 0.24790914806344158 0.2802836545425694 0.247909148063499 0.020568574191304145 0.21021969446592653 0.41886411672363116 -0.7060379905925447
65000000.0 0.39549981945858764 -0.7145343883522636 0.04013595745933552 0.21919419556129294 0.28218211154100015 0.24767009639552554 0.28218211154100503 0.24767009639556928
 0.040135957459335486 0.21919419556129288 0.3954998194587271 -0.71453438835214 0.28218211154100337 0.24767009639557735 0.28218211154102296 0.247670096395627
 0.2821821115409999 0.24767009639552545 0.2821821115410035 0.24767009639557735 0.4137107435588158 -0.7071986165122748 0.02192503335910727 0.2118584237212993
 0.2821821115410049 0.2476700963955692 0.2821821115410228 0.24767009639562687 0.021925033359107275 0.21185842372129918 0.41371074355892246 -0.7071986165121702
65500000.0 0.3902665628849476 -0.715544104751715 0.04160884513071522 0.22070655321043164 0.2840622959921296 0.2474187757706825 0.2840622959921348 0.2474187757707265
 0.041608845130715263 0.22070655321043164 0.3902665628850882 -0.7155441047515912 0.28406229599213334 0.24741877577073476 0.2840622959921532 0.24741877577078458
 0.28406229599212945 0.24741877577068236 0.28406229599213334 0.24741877577073476 0.40858106752872403 -0.7083175019190495 0.023294340486939173 0.2134799503777612
 0.2840622959921346 0.2474187757707263 0.284062295992153 0.24741877577078442 0.023294340486939152 0.2134799503777611 0.4085810675288309 -0.7083175019189449
66000000.0 0.3850592267931139 -0.7165117853034955 0.04309215812178799 0.22220068345724647 0.2859243075425097 0.24715555092316588 0.285924307542515 0.2471555509232102
 0.043092158121787974 0.22220068345724642 0.3850592267932552 -0.7165117853033722 0.2859243075425137 0.2471555509232186 0.2859243075425339 0.24715555092326855
 0.28592430754250947 0.24715555092316577 0.2859243075425138 0.2471555509232186 0.40347526030587477 -0.7093952765776728 0.024676124609027284 0.2150841747314189
 0.28592430754251497 0.24715555092321015 0.28592430754253373 0.2471555509232685 0.02467612460902726 0.2150841747314188 0.40347526030598263 -0.7093952765775682
66500000.0 0.3798779695830541 -0.7174380950700453 0.04458553135648866 0.22367653748172284 0.28776824953018854 0.24688077879420328 0.2877682495301944 0.246880778794248
 0.04458553135648865 0.22367653748172273 0.3798779695831967 -0.7174380950699223 0.287768249530193 0.2468807787942564 0.28776824953021357 0.24688077879430673
 0.2877682495301883 0.24688077879420314 0.28776824953019303 0.24688077879425643 0.3983934836156089 -0.7104325637407923 0.026070017323933957 0.2166710061524649
 0.2877682495301942 0.2468807787942478 0.28776824953021335 0.24688077879430656 0.026070017323933915 0.21667100615246482 0.3983934836157178 -0.7104325637406882
67000000.0 0.37472293922494176 -0.7183236920193842 0.04608860325198006 0.22513407475458846 0.2895942287614985 0.2465948086324404 0.28959422876150465 0.24659480863248548
 0.04608860325198006 0.22513407475458835 0.37472293922508526 -0.7183236920192609 0.28959422876150304 0.2465948086324939 0.2895942287615242 0.24659480863254454
 0.2895942287614982 0.24659480863244027 0.28959422876150315 0.24659480863249392 0.39333588951096843 -0.7114299801258311 0.027475652965953473 0.21824036286103046
 0.2895942287615044 0.24659480863248529 0.2895942287615239 0.24659480863254435 0.027475652965953484 0.21824036286103035 0.393335889511078 -0.7114299801257269
67500000.0 0.36959427355129515 -0.7191692269984481 0.0476010158569323 0.2265732628051106 0.2914023552958453 0.246297982096712 0.2914023552958516 0.24629798209675724
 0.04760101585693237 0.22657326280511053 0.3695942735514394 -0.7191692269983252 0.2914023552958502 0.24629798209676573 0.2914023552958716 0.2462979820968166
 0.291402355295845 0.2462979820967118 0.2914023552958503 0.24629798209676582 0.38830262064152266 -0.7123881358969307 0.028892668766704745 0.219792171703588
 0.29140235529585146 0.24629798209675713 0.29140235529587133 0.24629798209681647 0.028892668766704672 0.21979217170358797 0.3883026206416329 -0.7123881358968264
68000000.0 0.3644921005428645 -0.7199753437120051 0.04912241498045903 0.22799407699044325 0.29319274223829667 0.24599063336082452 0.2931927422383033 0.2459906333608703
 0.049122414980459043 0.22799407699044322 0.3644921005430097 -0.719975343711882 0.29319274223830194 0.2459906333608789 0.2931927422383237 0.24599063336092997
 0.2931927422382965 0.24599063336082447 0.29319274223830194 0.24599063336087884 0.38329381051612493 -0.7133076346517376 0.030320705007198495 0.2213263679301708
 0.29319274223830316 0.24599063336087013 0.2931927422383234 0.24599063336092972 0.03032070500719849 0.2213263679301707 0.3832938105162359 -0.7133076346516334
68500000.0 0.35941653860833717 -0.7207426787068616 0.050652450312009795 0.22939650026675704 0.29496550553978435 0.24567308922009662 0.29496550553979123 0.24567308922014255
 0.05065245031200975 0.22939650026675695 0.3594165386084833 -0.720742678706739 0.29496550553979006 0.24567308922015127 0.2949655055398121 0.2456730892202025
 0.2949655055397841 0.24567308922009645 0.2949655055397901 0.2456730892201513 0.37830958375968354 -0.7141890734127703 0.03175940516066343 0.22284289497266066
 0.2949655055397911 0.24567308922014247 0.294965505539812 0.24567308922020242 0.03175940516066341 0.22284289497266066 0.3783095837597953 -0.714189073412666
69000000.0 0.35436769685793346 -0.7214718613610958 0.052190775532513396 0.23078052296236506 0.29672076380473394 0.2453456691994104 0.29672076380474116 0.2453456691994568
 0.05219077553251342 0.2307805229623649 0.35436769685808045 -0.7214718613609736 0.29672076380474 0.2453456691994654 0.2967207638047624 0.24534566919951697
 0.29672076380473367 0.24534566919941023 0.29672076380473994 0.2453456691994654 0.3733500563640386 -0.7150330426231144 0.03320841602640811 0.22434170422437824
 0.296720763804741 0.24534566919945655 0.29672076380476237 0.24534566919951686 0.03320841602640811 0.2243417042243782 0.37335005636415125 -0.7150330426230103
69500000.0 0.34934567537097394 -0.7221635138780532 0.05373704841706708 0.23214614255304303 0.29845863810593637 0.24500868566255068 0.29845863810594386 0.2450086856625974
 0.05373704841706713 0.232146142553043 0.34934567537112166 -0.722163513877931 0.29845863810594286 0.24500868566260608 0.2984586381059657 0.2450086856626578
 0.2984586381059361 0.24500868566255055 0.29845863810594286 0.2450086856626061 0.3684153359330419 -0.7158401261462072 0.034667387854998954 0.2258227548211918
 0.2984586381059437 0.24500868566259712 0.29845863810596535 0.24500868566265768 0.03466738785499897 0.22582275482119168 0.3684153359331551 -0.715840126146103
70000000.0 0.3443505654574966 -0.7228182512848575 0.055290930929461614 0.23349336343972782 0.30017925180647725 0.24466244392261105 0.3001792518064849 0.24466244392265796
 0.055290930929461655 0.2334933634397278 0.34435056545764525 -0.7228182512847353 0.30017925180648397 0.24466244392266692 0.30017925180650695 0.24466244392271874
 0.3001792518064771 0.24466244392261094 0.300179251806484 0.2446624439226669 0.3635055219219274 -0.716610901269485 0.036135974465030814 0.22728601342434987
 0.3001792518064848 0.2446624439226578 0.3001792518065068 0.24466244392271866 0.03613597446503081 0.22728601342434981 0.36350552192204116 -0.7166109012693807
70500000.0 0.33938244991401245 -0.7234366814352005 0.05685208930882975 0.23482219672876012 0.3018827303885346 0.24430724235326676 0.3018827303885427 0.24430724235331416
 0.056852089308829734 0.2348221967287601 0.33938244991416194 -0.7234366814350786 0.3018827303885417 0.24430724235332302 0.3018827303885652 0.24430724235337534
 0.30188273038853447 0.24430724235326676 0.3018827303885418 0.24430724235332307 0.3586207058710794 -0.7173459387116695 0.03761383335176245 0.22873145400522388
 0.30188273038854263 0.24430724235331405 0.30188273038856506 0.2443072423533751 0.037613833351762466 0.22873145400522374 0.35862070587119427 -0.7173459387115652
71000000.0 0.33444140327347904 -0.7240194050161799 0.05842019414870133 0.23613266001482827 0.303569201288865 0.24394337250072323 0.3035692012888733 0.2439433725007707
 0.05842019414870139 0.2361326600148283 0.3344414032736294 -0.724019405016058 0.3035692012888726 0.24394337250077977 0.3035692012888963 0.24394337250083203
 0.3035692012888648 0.24394337250072304 0.3035692012888726 0.2439433725007798 0.35376097163429 -0.7180458026334914 0.03910062578789002 0.23015905763213446
 0.30356920128887327 0.24394337250077058 0.30356920128889625 0.243943372500832 0.039100625787890045 0.23015905763213437 0.3537609716344054 -0.7180458026333875
71500000.0 0.32952749204958554 -0.7245670155589685 0.05999492046874543 0.2374247771667514 0.30523879374078927 0.24357111919615657 0.305238793740798 0.24357111919620456
 0.059994920468745466 0.23742477716675134 0.32952749204973675 -0.724567015558847 0.30523879374079715 0.24357111919621355 0.3052387937408214 0.24357111919626614
 0.3052387937407892 0.24357111919615654 0.30523879374079727 0.2435711191962136 0.3489263956016058 -0.7187110506516456 0.04059601691672472 0.23156881225942288
 0.3052387937407978 0.24357111919620442 0.30523879374082113 0.24357111919626603 0.040596016916724674 0.23156881225942283 0.34892639560172206 -0.7187110506515414
72000000.0 0.3246407749754372 -0.725080099453104 0.06157594777947205 0.23869857811623058 0.3068916386224996 0.24319076066848536 0.3068916386225085 0.24319076066853346
 0.061575947779472055 0.23869857811623046 0.32464077497558924 -0.7250800994529826 0.30689163862250773 0.24319076066854262 0.3068916386225323 0.24319076066859538
 0.3068916386224994 0.24319076066848527 0.3068916386225078 0.24319076066854267 0.34411704691686984 -0.7193422338557925 0.04209967583803927 0.23296071251891362
 0.30689163862250834 0.2431907606685333 0.30689163862253216 0.24319076066859527 0.0420996758380393 0.23296071251891354 0.34411704691698636 -0.7193422338556886
72500000.0 0.31978130323672876 -0.7255592359642007 0.06316296014016755 0.2399540986496854 0.3085278683115055 0.2428025686573069 0.3085278683115148 0.24280256865735547
 0.06316296014016758 0.23995409864968534 0.31978130323688175 -0.7255592359640797 0.30852786831151413 0.24280256865736463 0.30852786831153917 0.2428025686574176
 0.30852786831150536 0.24280256865730687 0.30852786831151424 0.24280256865736463 0.3393329876900512 -0.7199398968284256 0.04361127568684486 0.23433475951390478
 0.3085278683115147 0.2428025686573552 0.30852786831153894 0.24280256865741742 0.043611275686844884 0.2343347595139047 0.3393329876901685 -0.7199398968283218
73000000.0 0.3149491206995007 -0.7260049972548898 0.06475564621032465 0.24119138020327494 0.3101476165450404 0.24240680852585736 0.31014761654505013 0.24240680852590601
 0.06475564621032467 0.2411913802032749 0.3149491206996545 -0.7260049972547686 0.31014761654504935 0.24240680852591537 0.3101476165450748 0.24240680852596858
 0.3101476165450403 0.24240680852585728 0.31014761654504946 0.2424068085259154 0.33457427320447247 -0.7205045776674273 0.04513049370535255 0.23569096061580688
 0.31014761654504996 0.2424068085259059 0.3101476165450745 0.24240680852596838 0.04513049370535252 0.23569096061580674 0.33457427320459066 -0.7205045776673236
73500000.0 0.3101442641325695 -0.7264179484088069 0.06635369929483144 0.242410469661202 0.3117510182862521 0.2420037393738532 0.311751018286262 0.24200373937390213
 0.0663536992948314 0.24241046966120194 0.3101442641327237 -0.7264179484086862 0.31175101828626145 0.24200373937391145 0.3117510182862871 0.24200373937396474
 0.31175101828625196 0.2420037393738531 0.31175101828626156 0.24200373937391145 0.3298409521190272 -0.7210368080111553 0.0466570113083733 0.23702932926354475
 0.31175101828626184 0.24200373937390202 0.31175101828628693 0.24200373937396458 0.04665701130837328 0.23702932926354467 0.329840952119146 -0.7210368080110516
74000000.0 0.30536676342472624 -0.7267986474574512 0.06795681738317133 0.2436114191573779 0.31333820959600334 0.24159361415008768 0.31333820959601344 0.24159361415013697
 0.06795681738317133 0.24361141915737786 0.3053667634248812 -0.7267986474573304 0.31333820959601305 0.2415936141501464 0.3133382095960389 0.24159361415019995
 0.3133382095960031 0.24159361415008765 0.3133382095960131 0.2415936141501465 0.3251330666654937 -0.7215371130659007 0.048190514142403204 0.23834988476582217
 0.3133382095960132 0.2415936141501369 0.31333820959603886 0.24159361415019995 0.048190514142403135 0.23834988476582208 0.32513306666561326 -0.721537113065797
74500000.0 0.30061664179679704 -0.7271476454097442 0.0695647031828851 0.24479428588052266 0.3149093275101106 0.24117667976466267 0.31490932751012096 0.24117667976471224
 0.06956470318288513 0.24479428588052263 0.30061664179695285 -0.7271476454096237 0.3149093275101207 0.2411766797647217 0.314909327510147 0.24117667976477536
 0.31490932751011036 0.24117667976466253 0.31490932751012074 0.24117667976472174 0.32045065284104574 -0.7220060116355669 0.04973069213863587 0.23965265210633968
 0.31490932751012085 0.2411766797647121 0.3149093275101468 0.24117667976477525 0.049730692138635874 0.2396526521063396 0.32045065284116586 -0.7220060116354633
75000000.0 0.2958939160086583 -0.7274654862841388 0.07117706414753866 0.24595913188276183 0.31646450992185265 0.24075317720074088 0.3164645099218633 0.24075317720079056
 0.07117706414753869 0.2459591318827618 0.29589391600881515 -0.7274654862840182 0.31646450992186304 0.24075317720080028 0.3164645099218897 0.24075317720085407
 0.31646450992185254 0.24075317720074071 0.31646450992186315 0.2407531772008003 0.315793740596055 -0.7224440161534303 0.05127723956014147 0.2409376617520479
 0.3164645099218632 0.24075317720079042 0.3164645099218895 0.240753177200854 0.051277239560141415 0.24093766175204784 0.31579374059617565 -0.7224440161533268
75500000.0 0.2911985965613012 -0.7277527071431108 0.07279361249943435 0.2471060238917755 0.3180038954695827 0.24032334162572078 0.31800389546959373 0.24032334162577096
 0.07279361249943436 0.24710602389177544 0.29119859656145874 -0.7277527071429908 0.3180038954695936 0.2403233416257806 0.31800389546962055 0.24032334162583455
 0.3180038954695825 0.24032334162572075 0.31800389546959357 0.24032334162578053 0.3111623540172908 -0.7228516327158498 0.052829855043444195 0.24220494946450885
 0.3180038954695936 0.24032334162577088 0.31800389546962055 0.24032334162583457 0.05282985504344421 0.24220494946450885 0.3111623540174123 -0.7228516327157463
76000000.0 0.286530687894038 -0.7280098381299024 0.07441406524729953 0.2482350331265422 0.3195276234292813 0.23988740250173393 0.3195276234292926 0.23988740250178428
 0.07441406524729954 0.24823503312654213 0.28653068789419617 -0.7280098381297824 0.31952762342929236 0.2398874025017939 0.3195276234293198 0.2398874025018482
 0.3195276234292811 0.2398874025017339 0.3195276234292924 0.23988740250179397 0.3065565115066101 -0.7232293611177919 0.054388241634726844 0.24345455611442615
 0.3195276234292925 0.23988740250178428 0.31952762342931956 0.23988740250184803 0.05438824163472678 0.243454556114426 0.3065565115067322 -0.7232293611176884
76500000.0 0.28189018857694426 -0.7282374025073635 0.07603814419917754 0.24934623511671744 0.3210358336118886 0.23944558369537763 0.3210358336119003 0.23944558369542832
 0.07603814419917758 0.24934623511671733 0.28189018857710335 -0.7282374025072439 0.32103583361190013 0.23944558369543795 0.321035833611928 0.23944558369549238
 0.32103583361188837 0.23944558369537752 0.3210358336119003 0.239445583695438 0.30197622595523765 -0.7235776948900534 0.055952106820883515 0.24468652749940167
 0.3210358336119002 0.23944558369542807 0.3210358336119278 0.23944558369549224 0.055952106820883536 0.24468652749940153 0.3019762259553605 -0.7235776948899503
77000000.0 0.2772770914986298 -0.7284359166987694 0.0776655759707434 0.25043970952567424 0.3225286662652624 0.23899810358660287 0.3225286662652745 0.23899810358665385
 0.07766557597074342 0.25043970952567424 0.27727709149878965 -0.7284359166986498 0.3225286662652742 0.2389981035866636 0.3225286662653025 0.23899810358671816
 0.32252866626526216 0.23899810358660278 0.3225286662652744 0.23899810358666357 0.2974215049137323 -0.7238971213380653 0.05752116255564029 0.2459009141649642
 0.3225286662652743 0.23899810358665363 0.3225286662653023 0.23899810358671797 0.05752116255564028 0.24590091416496404 0.29742150491385566 -0.7238971213379621
77500000.0 0.27269138404942883 -0.7286058903304802 0.07929609198925872 0.2515155399772302 0.32400626198060467 0.23854517517668097 0.32400626198061694 0.23854517517673218
 0.07929609198925872 0.25151553997723014 0.2726913840495894 -0.728605890330361 0.3240062619806171 0.23854517517674198 0.3240062619806455 0.23854517517679674
 0.3240062619806044 0.2385451751766809 0.3240062619806171 0.23854517517674198 0.29289235075773296 -0.7241881215821661 0.05909512528095389 0.24709777122891016
 0.32400626198061677 0.23854517517673196 0.32400626198064525 0.23854517517679658 0.05909512528095386 0.24709777122891005 0.29289235075785713 -0.7241881215820628
78000000.0 0.26813304830010215 -0.7287478262763232 0.08092942849337456 0.25257381388607525 0.3254687616032094 0.2380870061951806 0.32546876160322213 0.23808700619523196
 0.08092942849337455 0.2525738138860752 0.2681330483002634 -0.7287478262762042 0.3254687616032222 0.2380870061952419 0.32546876160325106 0.2380870061952967
 0.3254687616032093 0.23808700619518053 0.3254687616032222 0.2380870061952419 0.28838876084957965 -0.7244511705992436 0.06067371594389648 0.24827715820898966
 0.32546876160322197 0.23808700619523188 0.3254687616032508 0.23808700619529657 0.06067371594389645 0.24827715820898955 0.2883887608497044 -0.7244511705991405
78500000.0 0.2636020611761422 -0.7288622207035826 0.08256532652898634 0.2536146222919109 0.3269163061473831 0.23762379920589335 0.326916306147396 0.237623799205945
 0.08256532652898636 0.25361462229191073 0.2636020611763043 -0.7288622207034641 0.3269163061473963 0.23762379920595494 0.32691630614742534 0.23762379920600993
 0.32691630614738276 0.23762379920589313 0.32691630614739625 0.2376237992059549 0.283910727695901 -0.7246867372656407 0.06225666000922689 0.24943913885396274
 0.32691630614739575 0.23762379920594484 0.32691630614742523 0.23762379920600996 0.06225666000922685 0.2494391388539627 0.2839107276960263 -0.7246867372655376
79000000.0 0.2590983946277688 -0.7289495631204854 0.08420353194133695 0.25463805969730235 0.32834903671539395 0.23715575171164965 0.32834903671540727 0.23715575171170153
 0.0842035319413369 0.25463805969730224 0.2590983946279314 -0.7289495631203669 0.3283490367154073 0.23715575171171158 0.32834903671543714 0.23715575171176667
 0.32834903671539367 0.2371557517116495 0.32834903671540755 0.23715575171171158 0.2794582391012596 -0.7248952844012352 0.0638436874678454 0.2505837809780462
 0.3283490367154071 0.23715575171170136 0.3283490367154369 0.2371557517117666 0.06384368746784543 0.25058378097804607 0.2794582391013856 -0.7248952844011326
79500000.0 0.254622015795706 -0.7290103364250773 0.08584379536356114 0.25564422390924574 0.3297670944203129 0.2366830562579744 0.32976709442032637 0.23668305625802655
 0.08584379536356113 0.2556442239092457 0.25462201579586935 -0.7290103364249589 0.3297670944203267 0.23668305625803646 0.32976709442035657 0.23668305625809194
 0.3297670944203126 0.2366830562579743 0.3297670944203267 0.2366830562580365 0.27503127831794405 -0.7250772688146031 0.06543453284132218 0.2517111562987657
 0.32976709442032615 0.2366830562580264 0.32976709442035634 0.23668305625809166 0.06543453284132215 0.2517111562987656 0.2750312783180707 -0.7250772688145003
80000000.0 0.2501728871728281 -0.7290450169553886 0.08748587220185497 0.2566332158844386 0.3311706203126043 0.23620590053553434 0.3311706203126182 0.23620590053558688
 0.08748587220185497 0.2566332158844385 0.2501728871729923 -0.7290450169552707 0.33117062031261857 0.2362059005355969 0.33117062031264893 0.2362059005356524
 0.3311706203126041 0.23620590053553436 0.33117062031261874 0.23620590053559692 0.2706298241919977 -0.7252331413491766 0.06702893518268427 0.2528213402782207
 0.33117062031261807 0.23620590053558677 0.3311706203126487 0.23620590053565227 0.06702893518268431 0.25282134027822056 0.27062982419212506 -0.7252331413490742
80500000.0 0.24575096676175953 -0.7290540745407971 0.08912952261745206 0.25760513957824427 0.33255975531033966 0.23572446748133655 0.3325597553103537 0.2357244674813892
 0.08912952261745204 0.2576051395782441 0.2457509667619245 -0.7290540745406794 0.3325597553103543 0.23572446748139936 0.33255975531038495 0.23572446748145492
 0.33255975531033943 0.23572446748133646 0.3325597553103544 0.23572446748139933 0.2662538513055677 -0.7253633469303238 0.068626638073643 0.2539144119677647
 0.3325597553103534 0.235724467481389 0.3325597553103847 0.23572446748145484 0.06862663807364294 0.2539144119677646 0.2662538513056954 -0.725363346930221
81000000.0 0.24135620822851553 -0.729037972554489 0.09077451150557951 0.2585601017973341 0.33393464013289736 0.23523893537863838 0.3339346401329117 0.23523893537869117
 0.09077451150557948 0.25856010179733396 0.24135620822868104 -0.7290379725543714 0.33393464013291224 0.23523893537870139 0.3339346401329432 0.23523893537875715
 0.3339346401328969 0.23523893537863813 0.3339346401329124 0.2352389353787014 0.26190333011566064 -0.7254683246132635 0.07022738961843358 0.25499045385610225
 0.3339346401329115 0.23523893537869103 0.333934640132943 0.23523893537875704 0.0702273896184336 0.25499045385610214 0.26190333011578915 -0.7254683246131611
81500000.0 0.2369885610522686 -0.7289971679669405 0.09242060847156294 0.25949821205598594 0.3352954152380286 0.23474947795553872 0.3352954152380434 0.2347494779555919
 0.09242060847156293 0.2594982120559859 0.23698856105243452 -0.7289971679668228 0.335295415238044 0.23474947795560205 0.3352954152380754 0.2347494779556579
 0.33529541523802847 0.2347494779555387 0.3352954152380442 0.23474947795560208 0.2575782270893908 -0.7255485076317532 0.07183094243443958 0.25604955172079263
 0.33529541523804346 0.23474947795559178 0.33529541523807527 0.2347494779556578 0.07183094243443959 0.2560495517207926 0.25757822708951983 -0.725548507631651
82000000.0 0.23264797067132081 -0.7289321114003261 0.09406758780424243 0.2604195824360137 0.33664222076216216 0.23425626448221842 0.3366422207621775 0.23425626448227185
 0.09406758780424242 0.2604195824360136 0.23264797067148751 -0.7289321114002089 0.336642220762178 0.234256264482282 0.3366422207622098 0.23425626448233802
 0.33664222076216194 0.23425626448221842 0.3366422207621781 0.23425626448228212 0.2532785048357982 -0.7256043234474714 0.07343705363976397 0.2570917944831532
 0.3366422207621772 0.2342562644822716 0.3366422207622095 0.23425626448233788 0.0734370536397639 0.25709179448315306 0.2532785048359277 -0.7256043234473695
82500000.0 0.22833437862536943 -0.7288432471837871 0.09571522844685858 0.26132432745030243 0.3379751964638294 0.23375945986680557 0.33797519646384494 0.23375945986685914
 0.09571522844685858 0.26132432745030226 0.22833437862553665 -0.7288432471836702 0.3379751964638456 0.23375945986686938 0.3379751964638777 0.2337594598669255
 0.3379751964638292 0.23375945986680544 0.3379751964638456 0.23375945986686936 0.24900412223431928 -0.7256361938000371 0.0750454848379075 0.2581172740665461
 0.3379751964638447 0.2337594598668589 0.3379751964638775 0.23375945986692537 0.07504548483790753 0.258117274066546 0.24900412223444948 -0.7256361937999354
83000000.0 0.22404772269413897 -0.7287310134094732 0.0973633139655592 0.2622125639099147 0.3392944816700936 0.2332592247498431 0.3392944816701095 0.2332592247498967
 0.09736331396555918 0.2622125639099146 0.22404772269430712 -0.7287310134093566 0.3392944816701103 0.23325922474990715 0.3392944816701427 0.23325922474996333
 0.3392944816700934 0.23325922474984292 0.33929448167011034 0.23325922474990718 0.24475503455998973 -0.7256445347575963 0.07665600209970772 0.25912608525803166
 0.3392944816701092 0.23325922474989652 0.3392944816701425 0.2332592247499632 0.07665600209970769 0.2591260852580316 0.24475503456012013 -0.7256445347574946
83500000.0 0.2197879370324678 -0.7285958419892908 0.09901163251567381 0.2630844107947371 0.34060021522587125 0.23275571559734137 0.34060021522588746 0.23275571559739533
 0.09901163251567377 0.26308441079473693 0.21978793703263677 -0.7285958419891746 0.3406002152258883 0.23275571559740574 0.3406002152259212 0.23275571559746208
 0.3406002152258711 0.23275571559734123 0.34060021522588846 0.23275571559740577 0.24053119360545286 -0.7256297567679264 0.07826837594268769 0.26011832557336656
 0.3406002152258873 0.2327557155973951 0.34060021522592104 0.232755715597462 0.07826837594268765 0.2601183255733664 0.24053119360558425 -0.7256297567678249
84000000.0 0.21555495230191835 -0.7284381587122918 0.10065997680589811 0.2639399891276257 0.3418925354460335 0.2322490847923982 0.34189253544605 0.23224908479245246
 0.10065997680589811 0.26393998912762556 0.21555495230208782 -0.7284381587121757 0.34189253544605086 0.23224908479246287 0.3418925354460841 0.23224908479251938
 0.3418925354460333 0.2322490847923982 0.3418925354460511 0.23224908479246295 0.23633254779985552 -0.7255922647099943 0.07988238130795969 0.26109409512532195
 0.34189253544604986 0.23224908479245235 0.34189253544608383 0.23224908479251927 0.07988238130795958 0.2610940951253218 0.2363325477999873 -0.7255922647098927
84500000.0 0.21134869579899404 -0.7282583833026317 0.1023081440605238 0.26477942185201464 0.3431715800701822 0.23173948072537445 0.34317158007019904 0.23173948072542894
 0.10230814406052378 0.26477942185201453 0.21134869579916424 -0.7282583833025158 0.3431715800702001 0.2317394807254394 0.3431715800702335 0.23173948072549605
 0.34317158007018206 0.2317394807253744 0.34317158007020016 0.2317394807254394 0.23215904232469614 -0.7255324579459186 0.08149779753482052 0.26205349649529514
 0.3431715800701988 0.23173948072542883 0.34317158007023324 0.231739480725496 0.08149779753482048 0.2620534964952951 0.23215904232482873 -0.7255324579458171
85000000.0 0.2071690915800378 -0.728056929478042 0.1039559359798457 0.26560283371294385 0.3444374862199989 0.2312270478826158 0.34443748622001596 0.23122704788267034
 0.10395593597984573 0.26560283371294385 0.2071690915802088 -0.7280569294779262 0.34443748622001713 0.23122704788268095 0.344437486220051 0.23122704788273768
 0.3444374862199987 0.23122704788261567 0.3444374862200172 0.23122704788268092 0.22801061922670568 -0.7254507303732884 0.08311440833317665 0.262996634608184
 0.34443748622001585 0.23122704788267023 0.34443748622005077 0.2312270478827376 0.08311440833317665 0.2629966346081839 0.2280106192268387 -0.7254507303731871
85500000.0 0.20301606058288138 -0.7278342050087511 0.10560315869887259 0.26641035114146183 0.3456903903590631 0.23071192693371204 0.3456903903590805 0.23071192693376677
 0.10560315869887259 0.26641035114146183 0.20301606058305277 -0.7278342050086358 0.3456903903590818 0.23071192693377746 0.3456903903591159 0.23071192693383424
 0.34569039035906296 0.230711926933712 0.345690390359082 0.2307119269337775 0.2238872175278271 -0.7253474704777869 0.08473200175392573 0.26392361661049135
 0.34569039035908034 0.2307119269337668 0.34569039035911564 0.23071192693383416 0.08473200175392565 0.26392361661049135 0.22388721752796065 -0.7253474704776858
86000000.0 0.19888952074532454 -0.7275906117768042 0.1072496227444627 0.26720210214235823 0.34693042825504594 0.23019425481729097 0.3469304282550638 0.23019425481734618
 0.10724962274446272 0.26720210214235823 0.1988895207454965 -0.7275906117766887 0.3469304282550649 0.23019425481735672 0.3469304282550996 0.2301942548174137
 0.34693042825504594 0.23019425481729097 0.34693042825506504 0.2301942548173567 0.21978877333236493 -0.7252230613860783 0.08635037015742111 0.26483455175162607
 0.3469304282550637 0.230194254817346 0.3469304282550994 0.23019425481741357 0.08635037015742107 0.2648345517516259 0.21978877333249935 -0.7252230613859773
86500000.0 0.19478938712051153 -0.7273265458357222 0.10889514299100188 0.2679782161851769 0.34815773494418256 0.22967416482534145 0.3481577349442006 0.22967416482539668
 0.10889514299100188 0.26797821618517687 0.1947893871206842 -0.7273265458356073 0.348157734944202 0.22967416482540734 0.34815773494423685 0.22967416482546443
 0.34815773494418245 0.22967416482534145 0.34815773494420205 0.22967416482540737 0.21571521993137127 -0.7250778809189125 0.08796931018014073 0.2657295512683612
 0.34815773494420055 0.22967416482539665 0.3481577349442365 0.22967416482546432 0.0879693101801407 0.265729551268361 0.21571521993150594 -0.7250778809188115
87000000.0 0.19071557198927508 -0.7270423974704553 0.11053953861473521 0.268738824098463 0.3493724446979336 0.22915178668606595 0.349372444697952 0.22915178668612143
 0.11053953861473517 0.26873882409846284 0.19071557198944833 -0.7270423974703407 0.3493724446979533 0.22915178668613206 0.3493724446979886 0.2291517866861892
 0.34937244469793327 0.22915178668606584 0.34937244469795337 0.22915178668613206 0.2116664879043337 -0.7249123016444124 0.08958862269967525 0.2666087282724135
 0.3493724446979517 0.22915178668612118 0.34937244469798834 0.22915178668618905 0.08958862269967521 0.2666087282724134 0.21166648790446893 -0.7249123016443118
87500000.0 0.18666798496952014 -0.7267385512575804 0.11218263304686191 0.2694840579671901 0.35057469099174715 0.2286272466452654 0.3505746909917659 0.22862724664532116
 0.11218263304686191 0.26948405796719005 0.18666798496969395 -0.7267385512574659 0.3505746909917674 0.22862724664533182 0.350574690991803 0.22862724664538914
 0.350574690991747 0.22862724664526538 0.35057469099176747 0.22862724664533188 0.20764250521823188 -0.7247266909314988 0.09120811279814865 0.26747219764110236
 0.35057469099176586 0.228627246645321 0.3505746909918028 0.228627246645389 0.0912081127981486 0.26747219764110225 0.2076425052183678 -0.7247266909313982
88000000.0 0.18264653312270918 -0.7264153861256909 0.11382425392549415 0.27021405103331886 0.3517646064758361 0.22810066754625735 0.3517646064758552 0.22810066754631303
 0.11382425392549413 0.27021405103331875 0.18264653312288354 -0.7264153861255767 0.35176460647585656 0.2281006675463239 0.3517646064758925 0.22810066754638122
 0.35176460647583574 0.22810066754625724 0.35176460647585667 0.22810066754632394 0.20364319732402322 -0.7245214110034234 0.09282758972417846 0.26832007591104506
 0.351764606475855 0.228100667546313 0.35176460647589236 0.22810066754638117 0.09282758972417836 0.26832007591104495 0.2036431973241597 -0.7245214110033231
88500000.0 0.17865112105752068 -0.7260732754159491 0.11546423304658192 0.27092893759943065 0.3529423229478858 0.22757216890833135 0.3529423229479052 0.22757216890838733
 0.11546423304658195 0.2709289375994305 0.17865112105769576 -0.7260732754158356 0.35294232294790684 0.22757216890839815 0.35294232294794303 0.22757216890845544
 0.3529423229478857 0.2275721689083313 0.352942322947907 0.2275721689083982 0.19966848725062153 -0.7242968189913727 0.09444686685347972 0.2691524811748476
 0.352942322947905 0.2275721689083872 0.3529423229479429 0.22757216890845552 0.09444686685347962 0.26915248117484747 0.1996684872507582 -0.7242968189912722
89000000.0 0.17468165103074298 -0.7257125869427447 0.11710240631389647 0.2716288529353869 0.3541079713276169 0.22704186700375162 0.3541079713276367 0.22704186700380774
 0.1171024063138964 0.27162885293538674 0.17468165103091837 -0.725712586942631 0.3541079713276383 0.22704186700381865 0.35410797132767496 0.22704186700387613
 0.35410797132761673 0.2270418670037516 0.3541079713276385 0.22704186700381868 0.19571829569642638 -0.7240532669881082 0.09606576164821158 0.2699695329807443
 0.3541079713276365 0.22704186700380763 0.35410797132767474 0.22704186700387602 0.09606576164821148 0.2699695329807441 0.19571829569656354 -0.7240532669880082
89500000.0 0.17073802304546568 -0.7253336830544287 0.11873861368816442 0.2723139331879555 0.35526168163312116 0.22650987493331018 0.3552616816331412 0.2265098749333666
 0.11873861368816445 0.2723139331879553 0.17073802304564187 -0.7253336830543152 0.355261681633143 0.2265098749333774 0.35526168163317984 0.22650987493343505
 0.355261681633121 0.22650987493331007 0.35526168163314303 0.22650987493337743 0.19179254111846505 -0.7237911021016212 0.09768409561516349 0.27077135223514154
 0.355261681633141 0.22650987493336633 0.35526168163317967 0.22650987493343488 0.09768409561516347 0.2707713522351414 0.19179254111860297 -0.7237911021015212
90000000.0 0.16682013494663508 -0.724936920694086 0.1203726991354401 0.27298431529335143 0.356403582958898 0.22597630270044183 0.35640358295891833 0.2259763027004984
 0.12037269913544014 0.2729843152933513 0.16682013494681208 -0.7249369206939731 0.3564035829589203 0.22597630270050917 0.3564035829589575 0.2259763027005669
 0.3564035829588978 0.22597630270044172 0.3564035829589204 0.22597630270050925 0.18789113981920172 -0.7235106665087602 0.09930169426287207 0.271558061108019
 0.35640358295891816 0.22597630270049815 0.3564035829589574 0.22597630270056682 0.09930169426287204 0.2715580611080189 0.18789113981934025 -0.7235106665086605
90500000.0 0.16292788251403006 -0.7245226514603071 0.12200451057479779 0.2736401368926364 0.3575338034555213 0.2254412572839105 0.35753380345554187 0.22544125728396716
 0.12200451057479779 0.2736401368926364 0.16292788251420764 -0.7245226514601941 0.357533803455544 0.22544125728397826 0.3575338034555815 0.22544125728403602
 0.35753380345552105 0.22544125728391043 0.35753380345554386 0.22544125728397818 0.18401400603106907 -0.7232122975088174 0.10091838705775708 0.27232978294114024
 0.35753380345554187 0.2254412572839671 0.35753380345558133 0.2254412572840359 0.10091838705775706 0.27232978294114024 0.18401400603120804 -0.7232122975087178
91000000.0 0.1590611595527219 -0.724091221667926 0.12363389982542393 0.27428153624991963 0.35865247031086195 0.22490484270907934 0.35865247031088304 0.2249048427091362
 0.12363389982542394 0.2742815362499195 0.15906115955289968 -0.7240912216678135 0.3586524703108848 0.22490484270914712 0.3586524703109229 0.224904842709205
 0.35865247031086167 0.22490484270907926 0.35865247031088493 0.22490484270914715 0.18016105199878327 -0.7228963275770388 0.10253400737936083 0.2730866421590258
 0.3586524703108828 0.22490484270913605 0.3586524703109226 0.22490484270920488 0.10253400737936082 0.2730866421590257 0.18016105199892266 -0.7228963275769394
91500000.0 0.15521985798107302 -0.7236429724086978 0.12526072255318685 0.27490865217330474 0.35975970973280436 0.22436716011777338 0.3597597097328258 0.22436716011783045
 0.12526072255318682 0.27490865217330457 0.1552198579812513 -0.7236429724085855 0.35975970973282767 0.22436716011784139 0.3597597097328661 0.22436716011789934
 0.35975970973280413 0.22436716011777333 0.35975970973282784 0.22436716011784147 0.17633218805948472 -0.7225630844180377 0.10414839247477328 0.2738287641826381
 0.35975970973282556 0.2243671601178303 0.35975970973286586 0.22436716011789928 0.10414839247477323 0.2738287641826379 0.1763321880596247 -0.7225630844179385
92000000.0 0.15140386791633764 -0.7231782396118782 0.126884838216753 0.2755216239385268 0.3608556469333885 0.22382830783675334 0.36085564693341027 0.22382830783681057
 0.12688483821675295 0.2755216239385267 0.15140386791651622 -0.7231782396117663 0.36085564693341227 0.22382830783682142 0.36085564693345107 0.22382830783687957
 0.36085564693338834 0.22382830783675334 0.3608556469334125 0.2238283078368216 0.17252732272077034 -0.7222128910190896 0.10576138341231846 0.2745562753457315
 0.36085564693341 0.2238283078368104 0.36085564693345074 0.22382830783687946 0.10576138341231835 0.27455627534573124 0.1725273227209108 -0.7222128910189903
92500000.0 0.14761307775791183 -0.7226973541046829 0.1285061100133224 0.2761205912152218 0.361940406114316 0.22328838144480878 0.3619404061143382 0.22328838144486615
 0.12850611001332243 0.2761205912152218 0.14761307775809182 -0.7226973541045708 0.36194040611434036 0.2232883814448773 0.3619404061143793 0.22328838144493535
 0.3619404061143159 0.22328838144480867 0.36194040611434025 0.22328838144487728 0.16874636273665375 -0.7218460657032826 0.10737282503457878 0.2752693028138153
 0.3619404061143379 0.2232883814448659 0.3619404061143791 0.2232883814449352 0.1073728250345787 0.2752693028138151 0.16874636273679483 -0.7218460657031839
93000000.0 0.14384737426829933 -0.7222006416725947 0.13012440482404616 0.2767056939957724 0.36301411045376003 0.22274747383849022 0.3630141104537823 0.2227474738385477
 0.1301244048240462 0.27670569399577233 0.14384737426847957 -0.7222006416724831 0.36301411045378457 0.22274747383855886 0.36301411045382387 0.2227474738386171
 0.36301411045375975 0.22274747383849008 0.3630141104537846 0.2227474738385588 0.1649892131815169 -0.7214629221825104 0.10898256591082664 0.2759679745056815
 0.3630141104537822 0.2227474738385476 0.36301411045382365 0.2227474738386169 0.10898256591082668 0.27596797450568145 0.1649892131816584 -0.7214629221824116
93500000.0 0.14010664265183367 -0.7216884231194993 0.1317395931591902 0.27727707252667416 0.36407688209442024 0.22220567529649246 0.36407688209444306 0.2222056752965502
 0.13173959315919018 0.27727707252667405 0.1401066426520141 -0.721688423119388 0.3640768820944452 0.2222056752965612 0.36407688209448497 0.22220567529661953
 0.36407688209442013 0.22220567529649235 0.36407688209444544 0.22220567529656127 0.1612557775220893 -0.7210637696102795 0.11059045828893267 0.2766524190174477
 0.3640768820944427 0.22220567529654994 0.3640768820944848 0.22220567529661936 0.11059045828893259 0.27665241901744747 0.16125577752223125 -0.7210637696101807
94000000.0 0.13639076663122135 -0.7211610143276175 0.1333515491031049 0.2778348672423655 0.3651288421327687 0.22166307354270678 0.3651288421327918 0.22166307354276463
 0.13335154910310487 0.27783486724236545 0.1363907666314025 -0.7211610143275066 0.36512884213279406 0.22166307354277576 0.36512884213283414 0.22166307354283402
 0.3651288421327685 0.22166307354270676 0.36512884213279423 0.22166307354277584 0.1575459576875104 -0.7206489126343196 0.11219635804681403 0.2773227655490613
 0.3651288421327917 0.2216630735427645 0.3651288421328339 0.22166307354283388 0.11219635804681401 0.27732276554906116 0.15754595768765278 -0.7206489126342215
94500000.0 0.1326996285219521 -0.7206187263172177 0.13496015025905497 0.2783792187014644 0.3661701106094279 0.22111975380795815 0.3661701106094513 0.22111975380801618
 0.13496015025905497 0.2783792187014644 0.1326996285221337 -0.7206187263171069 0.36617011060945376 0.22111975380802731 0.36617011060949406 0.2211197538080856
 0.3661701106094277 0.22111975380795806 0.3661701106094537 0.22111975380802726 0.1538596541375186 -0.7202186514489801 0.11380012464348642 0.2779791438332201
 0.366170110609451 0.22111975380801602 0.3661701106094937 0.22111975380808555 0.11380012464348636 0.27797914383322 0.15385965413766137 -0.7202186514488816
95000000.0 0.12903310930462367 -0.7200618653060846 0.1365652776939673 0.278910267525359 0.36720080650063525 0.22057579889044512 0.36720080650065884 0.22057579889050322
 0.1365652776939673 0.27891026752535897 0.12903310930480597 -0.7200618653059742 0.3672008065006616 0.22057579889051457 0.3672008065007022 0.2205757988905728
 0.3672008065006351 0.22057579889044496 0.36720080650066167 0.2205757988905145 0.1501967659288111 -0.7197732818473878 0.11540162106977782 0.2786216840666555
 0.36720080650065884 0.22057579889050316 0.367200806500702 0.22057579889057283 0.11540162106977772 0.2786216840666555 0.15019676592895453 -0.7197732818472896
95500000.0 0.1253910886952397 -0.7194907327687233 0.13816681588314297 0.2794281543390924 0.36822104771073905 0.22003128921489862 0.36822104771076286 0.22003128921495696
 0.13816681588314295 0.27942815433909235 0.12539108869542262 -0.719490732768613 0.3682210477107656 0.22003128921496826 0.3682210477108065 0.22003128921502674
 0.3682210477107387 0.22003128921489848 0.3682210477107657 0.22003128921496817 0.14655719077961976 -0.7193130952733663 0.11700071379876097 0.2792505168437284
 0.3682210477107627 0.22003128921495677 0.36822104771080616 0.22003128921502663 0.11700071379876091 0.27925051684372837 0.14655719077976356 -0.719313095273268
96000000.0 0.121773445213518 -0.7189056254952811 0.13976465265498564 0.27993301971449047 0.3692309510656781 0.21948630289047943 0.3692309510657024 0.2194863028905379
 0.13976465265498567 0.27993301971449036 0.12177344521370126 -0.718905625495171 0.369230951065705 0.21948630289054913 0.36923095106574644 0.21948630289060758
 0.36923095106567794 0.21948630289047935 0.3692309510657052 0.21948630289054918 0.14294082513254341 -0.7188383788730861 0.11859727273595824 0.2798657730922887
 0.3692309510657022 0.21948630289053767 0.3692309510657462 0.21948630289060753 0.11859727273595821 0.2798657730922886 0.14294082513268758 -0.7188383788729884
96500000.0 0.11818005624926517 -0.7183068356501673 0.14135867913578923 0.2804250041154761 0.3702306323074024 0.21894091576743058 0.370230632307427 0.21894091576748917
 0.14135867913578923 0.280425004115476 0.1181800562494487 -0.7183068356500576 0.3702306323074298 0.21894091576750038 0.37023063230747144 0.21894091576755892
 0.37023063230740205 0.21894091576743044 0.37023063230742986 0.21894091576750038 0.1393475642156829 -0.7183494155464463 0.12019117116936925 0.2804675840117481
 0.37023063230742675 0.21894091576748886 0.3702306323074711 0.21894091576755875 0.12019117116936927 0.28046758401174793 0.13934756421582747 -0.7183494155463486
97000000.0 0.11461079812685916 -0.7176946508303564 0.14294878969463054 0.28090424784551715 0.37122020608918416 0.21839520149250535 0.3712202060892092 0.21839520149256403
 0.14294878969463046 0.28090424784551704 0.11461079812704345 -0.7176946508302473 0.371220206089212 0.21839520149257535 0.3712202060892538 0.21839520149263392
 0.3712202060891841 0.2183952014925054 0.37122020608921225 0.21839520149257552 0.13577730210211617 -0.7178464839981644 0.12178228571937148 0.28105608101331825
 0.37122020608920897 0.21839520149256386 0.37122020608925377 0.2183952014926339 0.12178228571937141 0.2810560810133181 0.135777302102261 -0.717846483998067
97500000.0 0.11106554616788884 -0.7170693541233563 0.1445348818884045 0.28137089099715257 0.37219978597178177 0.21784923156318825 0.3721997859718072 0.21784923156324723
 0.1445348818884045 0.2813708909971525 0.11106554616807342 -0.717069354123247 0.37219978597181 0.2178492315632585 0.3721997859718524 0.21784923156331717
 0.3721997859717815 0.2178492315631882 0.37219978597181 0.21784923156325847 0.13222993176775238 -0.7173298587885721 0.12337049628853868 0.28163139566236184
 0.3721997859718069 0.21784923156324693 0.37219978597185216 0.217849231563317 0.12337049628853856 0.2816313956623617 0.13222993176789816 -0.7173298587884751
98000000.0 0.10754417475198882 -0.716431224164827 0.14611685640704483 0.2818250734035465 0.37316948442041137 0.2173030753807277 0.37316948442043696 0.2173030753807867
 0.14611685640704475 0.2818250734035464 0.1075441747521741 -0.7164312241647179 0.3731694844204399 0.21730307538079813 0.3731694844204825 0.21730307538085677
 0.373169484420411 0.21730307538072757 0.37316948442043985 0.21730307538079796 0.12870534514760945 -0.7167998103840982 0.12495568601142165 0.2821936596228109
 0.3731694844204366 0.21730307538078647 0.3731694844204823 0.21730307538085672 0.12495568601142165 0.2821936596228109 0.12870534514775575 -0.7167998103840011
98500000.0 0.10404655737591936 -0.7157805351958393 0.14769461701896133 0.28226693459201535 0.3741294128024874 0.2167568003020002 0.3741294128025134 0.21675680030205924
 0.14769461701896125 0.2822669345920153 0.10404655737610509 -0.7157805351957306 0.3741294128025163 0.2167568003020707 0.3741294128025592 0.21675680030212938
 0.37412941280248724 0.21675680030200017 0.37412941280251644 0.21675680030207067 0.12520343319054483 -0.7162566052074327 0.1265377412043337 0.282743004603602
 0.3741294128025131 0.2167568003020591 0.3741294128025589 0.21675680030212927 0.12653774120433364 0.28274300460360186 0.12520343319069102 -0.7162566052073358
99000000.0 0.10057256671093072 -0.7151175571197538 0.1492680705167322 0.2826966137394791 0.3750796813860957 0.21621047169022625 0.37507968138612197 0.21621047169028548
 0.1492680705167322 0.282696613739479 0.10057256671111683 -0.7151175571196453 0.3750796813861249 0.21621047169029686 0.37507968138616815 0.21621047169035565
 0.3750796813860955 0.21621047169022622 0.375079681386125 0.21621047169029683 0.12172408591248314 -0.7157005056873627 0.12811655131517738 0.28327956230708146
 0.3750796813861218 0.21621047169028537 0.375079681386168 0.2162104716903555 0.12811655131517738 0.2832795623070814 0.12172408591263027 -0.7157005056872658
99500000.0 0.09712207465845209 -0.7144425555587135 0.15083712666308197 0.28311424962978365 0.37602039933915965 0.21566415296455485 0.37602039933918613 0.2156641529646142
 0.15083712666308197 0.2831142496297836 0.09712207465863876 -0.7144425555586053 0.37602039933918946 0.2156641529646256 0.3760203993392329 0.21566415296468439
 0.3760203993391594 0.21566415296455474 0.37602039933918946 0.21566415296462554 0.11826719244817624 -0.7151317703082691 0.12969200887335555 0.2838034643793326
 0.37602039933918596 0.21566415296461397 0.3760203993392327 0.2156641529646843 0.1296920088733555 0.2838034643793325 0.11826719244832369 -0.7151317703081725
100000000.0 0.0936949524041491 -0.7137557919097375 0.15240169813717364 0.283519980612844 0.37695167472926466 0.21511790564853756 0.37695167472929164 0.21511790564859698
 0.1524016981371736 0.28351998061284384 0.0936949524043364 -0.7137557919096299 0.37695167472929497 0.21511790564860847 0.37695167472933877 0.2151179056486673
 0.3769516747292645 0.21511790564853742 0.37695167472929514 0.2151179056486085 0.1148326411015257 -0.7145506536592777 0.1312640094397949 0.28431484236237753
 0.3769516747292914 0.21511790564859673 0.37695167472933866 0.21511790564866712 0.1312640094397948 0.2843148423623774 0.11483264110167347 -0.7145506536591816
100500000.0 0.09029107047038637 -0.7130575234004018 0.15396170048124627 0.2839139445655613 0.3778736145241095 0.21457178941751184 0.37787361452413676 0.21457178941757143
 0.15396170048124627 0.2839139445655611 0.09029107047057397 -0.7130575234002945 0.37787361452414 0.21457178941758281 0.3778736145241842 0.21457178941764177
 0.3778736145241094 0.21457178941751173 0.3778736145241401 0.2145717894175828 0.11142031939450794 -0.7139574064830558 0.13283245155712217 0.28481382764820806
 0.37787361452413654 0.21457178941757124 0.37787361452418405 0.21457178941764166 0.13283245155712203 0.284813827648208 0.1114203193946564 -0.7139574064829595
101000000.0 0.08691029876713485 -0.712348003144102 0.1555170520476217 0.28429627885446224 0.3787863245925471 0.21402586214491232 0.3787863245925746 0.214025862144972
 0.15551705204762167 0.28429627885446207 0.0869102987673228 -0.7123480031439945 0.3787863245925779 0.21402586214498343 0.3787863245926224 0.21402586214504235
 0.37878632459254696 0.21402586214491223 0.3787863245925781 0.21402586214498348 0.10803011411473441 -0.7133522757242462 0.13439723670001985 0.2853005514345995
 0.37878632459257444 0.21402586214497188 0.3787863245926222 0.21402586214504232 0.13439723670001974 0.2853005514345994 0.10803011411488318 -0.7133522757241499
101500000.0 0.08355250664136454 -0.7116274801948834 0.15706767394610702 0.2846671203000137 0.3796899097061892 0.21348017994752833 0.37968990970621713 0.21348017994758822
 0.157067673946107 0.28466712030001357 0.08355250664155295 -0.7116274801947765 0.37968990970622046 0.21348017994759957 0.37968990970626526 0.21348017994765864
 0.37968990970618893 0.21348017994752816 0.37968990970622046 0.21348017994759955 0.10466191136167496 -0.7127355045775374 0.13595826922579402 0.28577514468266046
 0.37968990970621685 0.213480179947588 0.37968990970626504 0.21348017994765844 0.13595826922579396 0.28577514468266035 0.10466191136182425 -0.7127355045774414
102000000.0 0.08021756292495338 -0.7108961996018376 0.15861348999181452 0.2850266051425663 0.3805844735415405 0.21293479722972963 0.38058447354156866 0.2129347972297895
 0.15861348999181446 0.2850266051425662 0.08021756292514229 -0.7108961996017308 0.38058447354157227 0.2129347972298011 0.3805844735416173 0.21293479722986006
 0.38058447354154024 0.21293479722972958 0.3805844735415723 0.21293479722980108 0.10131559659158464 -0.7121073325353553 0.1375154563251805 0.28623773807607716
 0.38058447354156844 0.21293479722978942 0.38058447354161706 0.21293479722985997 0.13751545632518047 0.2862377380760771 0.10131559659173427 -0.7121073325352595
102500000.0 0.07690533598115674 -0.7101544024630464 0.16015442665342053 0.28537486900988074 0.3814701186826353 0.212389766726678 0.3814701186826637 0.21238976672673807
 0.16015442665342056 0.2853748690098807 0.07690533598134627 -0.7101544024629399 0.3814701186826675 0.21238976672674964 0.3814701186827128 0.2123897667268086
 0.381470118682635 0.21238976672667792 0.3814701186826675 0.21238976672674953 0.09799105466115765 -0.7114679954351791 0.13906870797341686 0.2866884619820062
 0.38147011868266356 0.21238976672673796 0.38147011868271247 0.2123897667268085 0.13906870797341683 0.2866884619820061 0.09799105466130767 -0.7114679954350833
103000000.0 0.07361569374966531 -0.7094023259790798 0.16169041300188522 0.2857120468861878 0.38234694662414825 0.21184513954654183 0.38234694662417706 0.21184513954660195
 0.16169041300188516 0.2857120468861876 0.07361569374985502 -0.7094023259789736 0.3823469466241808 0.2118451395466135 0.3823469466242263 0.2118451395466725
 0.382346946624148 0.2118451395465418 0.38234694662418084 0.21184513954661355 0.09468816986994338 -0.7108177255064689 0.14061793688160462 0.2871274464135702
 0.3823469466241769 0.21184513954660178 0.3823469466242262 0.21184513954667247 0.14061793688160454 0.2871274464135701 0.0946881698700936 -0.7108177255063736
103500000.0 0.07034850379029195 -0.7086402035060255 0.1632213806596467 0.2860382730827437 0.3832150577749537 0.21130096521173786 0.38321505777498294 0.2113009652117982
 0.16322138065964667 0.28603827308274354 0.07034850379048206 -0.7086402035059199 0.38321505777498654 0.21130096521180955 0.3832150577750326 0.21130096521186867
 0.38321505777495346 0.21130096521173775 0.3832150577749867 0.21130096521180963 0.09140682600155166 -0.7101567514172082 0.14216305844838426 0.287554820993919
 0.38321505777498266 0.21130096521179798 0.38321505777503234 0.2113009652118686 0.1421630584483842 0.2875548209939188 0.09140682600170258 -0.7101567514171129
104000000.0 0.06710363332531595 -0.7078682646080613 0.1647472637503138 0.28635368120983046 0.3840745514621079 0.21075729169921303 0.38407455146213704 0.21075729169927335
 0.1647472637503137 0.2863536812098303 0.06710363332550676 -0.7078682646079555 0.38407455146214103 0.21075729169928503 0.3840745514621873 0.21075729169934404
 0.38407455146210756 0.21075729169921284 0.384074551462141 0.2107572916992849 0.08814690636368003 -0.7094852983200474 0.14370399071194698 0.2879707149218094
 0.3840745514621368 0.21075729169927324 0.3840745514621871 0.210757291699344 0.14370399071194698 0.2879707149218095 0.08814690636383142 -0.7094852983199521
104500000.0 0.0638809492805254 -0.7070867351095453 0.1662679988488646 0.2866584041501623 0.3849255259352274 0.21021416547978997 0.3849255259352571 0.21021416547985036
 0.16626799884886453 0.2866584041501622 0.06388094928071633 -0.70708673510944 0.3849255259352609 0.210214165479862 0.38492552593530754 0.21021416547992106
 0.3849255259352271 0.2102141654797899 0.38492552593526097 0.21021416547986196 0.08490829382698671 -0.708803587898055 0.14524065430240016 0.28837525693866495
 0.38492552593525686 0.21021416547985022 0.3849255259353073 0.21021416547992103 0.1452406543024001 0.2883752569386649 0.08490829382713826 -0.70880358789796
105000000.0 0.060680318324978715 -0.706295837146639 0.1677835249323731 0.28695257403365493 0.385768078371246 0.20967163155659138 0.38576807837127597 0.20967163155665194
 0.16778352493237303 0.2869525740336548 0.06068031832517026 -0.7062958371465339 0.38576807837127985 0.20967163155666352 0.3857680783713269 0.20967163155672275
 0.3857680783712456 0.20967163155659127 0.3857680783712799 0.20967163155666355 0.08169087086284042 -0.708111838410064 0.14677297239450865 0.2887685752970728
 0.3857680783712756 0.20967163155665178 0.3857680783713267 0.20967163155672258 0.14677297239450857 0.28876857529707267 0.0816908708629925 -0.7081118384099693
105500000.0 0.057501606909531794 -0.7054957892184427 0.1692937833312708 0.287236322213515 0.38660230487951985 0.20912973350256409 0.38660230487955033 0.20912973350262473
 0.16929378333127082 0.2872363222135149 0.05750160690972414 -0.7054957892183377 0.3866023048795544 0.2091297335026364 0.3866023048796016 0.20912973350269554
 0.38660230487951963 0.20912973350256397 0.38660230487955444 0.20912973350263636 0.07849451957997303 -0.7074102647356144 0.148300870660827 0.2891507977306798
 0.38660230487955005 0.20912973350262448 0.38660230487960134 0.20912973350269543 0.1483008706608269 0.28915079773067964 0.07849451958012549 -0.7074102647355198
106000000.0 0.054344681304146984 -0.7046868062376459 0.17079871768115942 0.2875097792436111 0.3874283005072678 0.2085885134971186 0.3874283005072984 0.2085885134971792
 0.17079871768115942 0.28750977924361093 0.05434468130433954 -0.7046868062375412 0.3874283005073024 0.208588513497191 0.38742830050735 0.20858851349725008
 0.3874283005072675 0.2085885134971184 0.38742830050730254 0.2085885134971909 0.07531912176006199 -0.7066990784194902 0.14982427722524191 0.28952205142544807
 0.38742830050729804 0.20858851349717897 0.3874283005073497 0.2085885134972499 0.1498242772252418 0.289522051425448 0.07531912176021455 -0.7066990784193958
106500000.0 0.05120940763402351 -0.7038690995806913 0.17229827387518246 0.28777307485708553 0.3882461592453175 0.20804801236190504 0.3882461592453487 0.20804801236196574
 0.17229827387518235 0.28777307485708536 0.051209407634216136 -0.703869099580587 0.38824615924535266 0.20804801236197745 0.3882461592454006 0.20804801236203654
 0.38824615924531725 0.20804801236190487 0.38824615924535266 0.2080480123619774 0.07216455889226679 -0.7059784877158433 0.15134312261693625 0.2898824629922304
 0.38824615924534833 0.20804801236196555 0.3882461592454003 0.20804801236203643 0.1513431226169362 0.28988246299223036 0.07216455889242013 -0.7059784877157493
107000000.0 0.04809565191457669 -0.703042877137443 0.1737924000169673 0.28802633794616805 0.38905597403414804 0.2075082695957403 0.3890559740341793 0.20750826959580126
 0.17379240001696722 0.28802633794616783 0.048095651914769916 -0.7030428771373387 0.38905597403418357 0.20750826959581295 0.38905597403423164 0.20750826959587212
 0.38905597403414777 0.20750826959574017 0.38905597403418357 0.20750826959581287 0.06903071220674815 -0.7052486976319099 0.15285733972479293 0.2902321584406279
 0.38905597403417913 0.20750826959580113 0.3890559740342314 0.20750826959587204 0.15285733972479293 0.29023215844062783 0.0690307122069019 -0.7052486976318157
107500000.0 0.04500328008529395 -0.7022083433603603 0.17528104637414665 0.2882696965431542 0.38985783677019914 0.20696932340870686 0.38985783677023084 0.20696932340876784
 0.17528104637414657 0.2882696965431541 0.04500328008548764 -0.7022083433602566 0.38985783677023517 0.20696932340877944 0.38985783677028346 0.2069693234088386
 0.389857836770199 0.20696932340870675 0.3898578367702352 0.2069693234087795 0.06591746270718962 -0.7045099099713078 0.15436686375224817 0.2905712631540945
 0.3898578367702306 0.20696932340876764 0.3898578367702834 0.20696932340883856 0.15436686375224815 0.2905712631540944 0.06591746270734346 -0.7045099099712139
108000000.0 0.041932158042496316 -0.7013656993131759 0.17676416533246467 0.2885032778025106 0.39065183831243877 0.20643121075543733 0.39065183831247074 0.20643121075549853
 0.17676416533246453 0.2885032778025104 0.041932158042690106 -0.7013656993130724 0.3906518383124749 0.20643121075551005 0.3906518383125237 0.20643121075556922
 0.39065183831243855 0.20643121075543724 0.3906518383124751 0.20643121075551002 0.06282469120235015 -0.7037623233769221 0.15587163217260766 0.2908999018662499
 0.3906518383124704 0.2064312107554983 0.39065183831252354 0.20643121075556914 0.15587163217260758 0.29089990186624975 0.06282469120250476 -0.7037623233768286
108500000.0 0.03888215167103226 -0.70051514271907 0.1782417113504772 0.28872720798407003 0.39143806848916396 0.2058939673676055 0.3914380684891962 0.20589396736766677
 0.1782417113504771 0.28872720798406987 0.038882151671226536 -0.7005151427189668 0.39143806848920054 0.2058939673676784 0.3914380684892496 0.20589396736773763
 0.39143806848916374 0.20589396736760548 0.3914380684892007 0.2058939673676784 0.05975227833667026 -0.7030061333733728 0.1573715846848361 0.29121819863836573
 0.391438068489196 0.20589396736766655 0.3914380684892494 0.2058939673677375 0.15737158468483606 0.29121819863836557 0.059752278336825136 -0.7030061333732794
109000000.0 0.03585312687493364 -0.699656868008347 0.17971364091485156 0.28894161243728333 0.3922166161050257 0.20535762778563824 0.3922166161050582 0.2053576277856995
 0.17971364091485148 0.2889416124372832 0.035853126875128274 -0.6996568680082439 0.39221661610506275 0.20535762778571118 0.392216616105112 0.20535762778577038
 0.3922166161050255 0.20535762778563824 0.39221661610506287 0.2053576277857112 0.0567001046199509 -0.7022415324090621 0.15886666316983106 0.2915262768379915
 0.3922166161050581 0.2053576277856994 0.3922166161051118 0.20535762778577032 0.15886666316983106 0.29152627683799137 0.056700104620106016 -0.7022415324089688
109500000.0 0.0328449496070566 -0.6987910663656065 0.18117991249626847 0.2891466155864904 0.3929875689482552 0.20482222538966546 0.3929875689482882 0.2048222253897268
 0.18117991249626847 0.2891466155864903 0.03284494960725179 -0.6987910663655036 0.3929875689482927 0.2048222253897385 0.39298756894834236 0.20482222538979766
 0.3929875689482551 0.2048222253896654 0.39298756894829284 0.2048222253897385 0.05366805045613362 -0.7014687098978069 0.1603568116471884 0.2918242591186836
 0.3929875689482881 0.20482222538972653 0.3929875689483421 0.20482222538979755 0.16035681164718832 0.29182425911868337 0.0536680504562891 -0.7014687098977139
110000000.0 0.029857485897735837 -0.697917925776412 0.18264048650593484 0.28934234091717825 0.39375101379808214 0.20428779242972522 0.3937510137981155 0.2042877924297867
 0.18264048650593476 0.2893423409171782 0.02985748589793129 -0.6979179257763095 0.39375101379812 0.2042877924297983 0.39375101379816996 0.20428779242985756
 0.3937510137980819 0.20428779242972517 0.3937510137981201 0.20428779242979822 0.05065599617119988 -0.7006878522600469 0.16184197623246727 0.29211226740080587
 0.3937510137981152 0.20428779242978654 0.3937510137981697 0.20428779242985745 0.1618419762324672 0.2921122674008057 0.05065599617135601 -0.700687852259954
110500000.0 0.02689060188247531 -0.6970376310734544 0.18409532525270567 0.2895289109631931 0.3945070364323268 0.20375436005523995 0.3945070364323603 0.20375436005530145
 0.18409532525270556 0.2895289109631929 0.02689060188267109 -0.6970376310733521 0.3945070364323649 0.203754360055313 0.3945070364324149 0.20375436005537237
 0.3945070364323265 0.2037543600552398 0.39450703643236495 0.2037543600553131 0.047663822040211766 -0.6998991429636375 0.16332210509496584 0.2923904228533688
 0.3945070364323599 0.20375436005530134 0.3945070364324148 0.20375436005537229 0.16332210509496575 0.29239042285336875 0.047663822040368065 -0.6998991429635445
111000000.0 0.02394416382870292 -0.6961503639822096 0.18554439290082278 0.28970644729487255 0.39525572163515393 0.2032219583437787 0.3952557216351878 0.20322195834384027
 0.1855443929008227 0.28970644729487244 0.023944163828899072 -0.6961503639821077 0.39525572163519235 0.20322195834385196 0.39525572163524303 0.2032219583439111
 0.39525572163515366 0.2032219583437786 0.39525572163519257 0.20322195834385187 0.04469140831351424 -0.6991027625642181 0.1647971484160082 0.2926588458768736
 0.39525572163518735 0.20322195834383994 0.3952557216352427 0.20322195834391094 0.16479714841600804 0.2926588458768734 0.04469140831367075 -0.6991027625641256
111500000.0 0.0210180381616098 -0.6952563031660935 0.1869876554282694 0.2898750705080695 0.3959971532049767 0.20269061632912289 0.3959971532050109 0.20269061632918453
 0.1869876554282694 0.28987507050806943 0.02101803816180642 -0.6952563031659917 0.39599715320501555 0.20269061632919633 0.39599715320506634 0.20269061632925545
 0.39599715320497647 0.20269061632912283 0.39599715320501555 0.20269061632919624 0.041738635242123207 -0.6982988887451628 0.16626705834775277 0.2929176560871317
 0.39599715320501055 0.20269061632918425 0.39599715320506607 0.20269061632925528 0.16626705834775263 0.29291765608713155 0.041738635242280095 -0.6982988887450704
112000000.0 0.01811209148910104 -0.6943556242711078 0.1884250805857425 0.290034900214033 0.39673141396249423 0.20216036202864923 0.3967314139625286 0.20216036202871093
 0.18842508058574248 0.2900349002140329 0.018112091489297735 -0.6943556242710063 0.3967314139625334 0.20216036202872265 0.3967314139625844 0.20216036202878174
 0.3967314139624939 0.20216036202864907 0.3967314139625334 0.2021603620287223 0.038805383102313615 -0.6974876963571109 0.16773178897252633 0.2931669723000287
 0.39673141396252837 0.20216036202871074 0.39673141396258416 0.2021603620287817 0.16773178897252633 0.2931669723000287 0.03880538310247114 -0.6974876963570185
112500000.0 0.015226190625876723 -0.693448499969986 0.18985663785624507 0.29018605503011957 0.39745858575885457 0.20163122247004583 0.39745858575888926 0.20163122247010765
 0.18985663785624501 0.2901860550301195 0.015226190626074167 -0.6934484999698848 0.39745858575889415 0.2016312224701193 0.39745858575894555 0.20163122247017856
 0.39745858575885434 0.20163122247004578 0.39745858575889437 0.2016312224701193 0.035891532219432545 -0.6966693574570751 0.16919129626268584 0.29340691251720163
 0.39745858575888904 0.20163122247010754 0.39745858575894527 0.20163122247017853 0.16919129626268584 0.2934069125172015 0.035891532219590454 -0.696669357456983
113000000.0 0.012360202616672552 -0.6925351000058313 0.1912822984152963 0.29032865257130425 0.39817874948393056 0.20110322371737707 0.3981787494839656 0.201103223717439
 0.1912822984152962 0.2903286525713041 0.012360202616870476 -0.6925351000057303 0.3981787494839705 0.20110322371745074 0.39817874948402215 0.2011032237175099
 0.39817874948393034 0.20110322371737707 0.39817874948397064 0.20110322371745068 0.032996962990951444 -0.695844041347135 0.170645538041014 0.2936375939126007
 0.3981787494839653 0.20110322371743874 0.39817874948402193 0.20110322371750985 0.17064553804101396 0.2936375939126006 0.032996962991109546 -0.6958440413470433
113500000.0 0.009513994758672584 -0.6916155912352537 0.192702035091763 0.29046280944246294 0.3988919850746967 0.20057639089650992 0.3988919850747321 0.2005763908965719
 0.192702035091763 0.2904628094424628 0.009513994758870766 -0.6916155912351531 0.3988919850747371 0.2005763908965836 0.398891985074789 0.20057639089664275
 0.3988919850746965 0.20057639089650992 0.3988919850747373 0.20057639089658372 0.030121555908781367 -0.6950119146127072 0.17209447394165103 0.2938591328199092
 0.39889198507473184 0.20057639089657164 0.3988919850747888 0.20057639089664284 0.17209447394165095 0.2938591328199092 0.03012155590893974 -0.6950119146126157
114000000.0 0.006687434623124734 -0.6906901376710045 0.19411582232930702 0.2905886412313991 0.3995983715236983 0.2000507482199181 0.399598371523734 0.20005074821998015
 0.1941158223293069 0.2905886412313989 0.006687434623323217 -0.690690137670904 0.399598371523739 0.20005074821999178 0.3995983715237913 0.20005074822005103
 0.3995983715236981 0.2000507482199181 0.39959837152373917 0.2000507482199919 0.02726519158086379 -0.6941731411604019 0.17353806537156446 0.2940716447207893
 0.39959837152373384 0.20005074821997995 0.3995983715237911 0.200050748220051 0.17353806537156438 0.2940716447207891 0.027265191581022783 -0.6941731411603105
114500000.0 0.0038803900761736937 -0.6897589005241085 0.19552363614845053 0.2907062625025867 0.40029798688760165 0.19952631901087725 0.4002979868876376 0.1995263190109392
 0.19552363614845042 0.2907062625025865 0.0038803900763727146 -0.6897589005240083 0.40029798688764284 0.19952631901095097 0.4002979868876952 0.19952631901101026
 0.40029798688760143 0.19952631901087725 0.40029798688764284 0.19952631901095105 0.024427750752061543 -0.6933278822554593 0.1749762754725593 0.29427524423393026
 0.40029798688763735 0.19952631901093906 0.40029798688769497 0.19952631901101012 0.17497627547255926 0.2942752442339301 0.024427750752220517 -0.6933278822553681
115000000.0 0.0010927292989361937 -0.6888220382454998 0.1969254541092567 0.2908157867916043 0.40099090829581724 0.1990031257270651 0.40099090829585343 0.19900312572712722
 0.19692545410925658 0.2908157867916042 0.0010927292991350622 -0.6888220382454 0.4009909082958586 0.19900312572713896 0.4009909082959112 0.19900312572719794
 0.4009909082958169 0.19900312572706505 0.40099090829585854 0.19900312572713882 0.021609114324359305 -0.6924762965587743 0.17640906908382975 0.2944700451048713
 0.4009909082958531 0.199003125727127 0.4009909082959109 0.19900312572719786 0.1764090690838297 0.2944700451048713 0.02160911432451867 -0.6924762965586833
115500000.0 -0.0016756791931686343 -0.6878797065671579 0.19832125527462371 0.29091732660023406 0.40167721195918543 0.19848118998357994 0.40167721195922185 0.19848118998364203
 0.19832125527462363 0.29091732660023395 -0.0016756791929692628 -0.687879706567058 0.4016772119592271 0.1984811899836538 0.4016772119592801 0.198481189983713
 0.4016772119591852 0.1984811899835799 0.4016772119592273 0.19848118998365386 0.018809163376398305 -0.6916185401635031 0.1778364127050533 0.29465616019657237
 0.40167721195922174 0.1984811899836421 0.40167721195928 0.19848118998371297 0.17783641270505332 0.2946561601965723 0.018809163376558167 -0.6916185401634121
116000000.0 -0.004424966531800536 -0.6869320585427472 0.19971102017418801 0.2910109933922012 0.4023569731787189 0.197960532575392 0.4023569731787558 0.19796053257545418
 0.199711020174188 0.2910109933922011 -0.004424966531600543 -0.6869320585426475 0.4023569731787609 0.19796053257546586 0.40235697317881436 0.19796053257552518
 0.4023569731787186 0.19796053257539195 0.40235697317876107 0.19796053257546598 0.016027779182355577 -0.6907547666312609 0.17925827446002815 0.2948337014807079
 0.4023569731787556 0.197960532575454 0.40235697317881414 0.197960532575525 0.17925827446002807 0.29483370148070775 0.016027779182515838 -0.6907547666311702
116500000.0 -0.007155263477790362 -0.6859792445877658 0.2010947307688364 0.29109689758952834 0.403030266354389 0.19744117349923848 0.40303026635442624 0.19744117349930076
 0.20109473076883633 0.29109689758952834 -0.00715526347758986 -0.6859792445876667 0.4030302663544316 0.19744117349931264 0.40303026635448524 0.1974411734993718
 0.40303026635438893 0.19744117349923854 0.40303026635443173 0.1974411734993126 0.013264843230190882 -0.6898851270279049 0.18067462406085172 0.29500278002966035
 0.40303026635442596 0.19744117349930065 0.4030302663544849 0.19744117349937168 0.18067462406085155 0.2950027800296601 0.013264843230351316 -0.6898851270278142
117000000.0 -0.00986670040390718 -0.6850214125192006 0.20247237041582158 0.2911751485694851 0.4036971649939547 0.19692313197497877 0.40369716499399216 0.19692313197504105
 0.20247237041582147 0.29117514856948495 -0.009866700403706604 -0.6850214125191019 0.4036971649939976 0.1969231319750528 0.4036971649940514 0.19692313197511194
 0.4036971649939543 0.19692313197497877 0.40369716499399755 0.19692313197505285 0.010520237239267318 -0.6890097699589096 0.18208543277264294 0.2951635060091869
 0.40369716499399183 0.19692313197504088 0.4036971649940511 0.19692313197511185 0.18208543277264297 0.2951635060091867 0.010520237239428165 -0.6890097699588195
117500000.0 -0.012559407278295711 -0.6840587075946932 0.20384392383447872 0.2912458546621031 0.40435774172182 0.19640642646641693 0.4043577417218577 0.19640642646647924
 0.20384392383447872 0.2912458546621032 -0.012559407278094788 -0.6840587075945946 0.40435774172186323 0.19640642646649095 0.40435774172191735 0.19640642646655004
 0.4043577417218197 0.19640642646641698 0.40435774172186306 0.19640642646649098 0.0077938431773734 -0.6881288416043351 0.18349067337880579 0.29531598867173803
 0.4043577417218575 0.19640642646647924 0.4043577417219169 0.19640642646655002 0.18349067337880567 0.295315988671738 0.007793843177534817 -0.6881288416042449
118000000.0 -0.015233513648555233 -0.6830912725512189 0.20520937707253867 0.29130912314824364 0.4050120682879193 0.1958910747016105 0.40501206828795727 0.19589107470167283
 0.2052093770725387 0.2913091231482436 -0.015233513648353916 -0.6830912725511206 0.4050120682879628 0.19589107470168463 0.40501206828801717 0.19589107470174363
 0.405012068287919 0.1958910747016104 0.40501206828796293 0.19589107470168457 0.00508554327714998 -0.6872424857533866 0.18489032014682993 0.2954603363504041
 0.4050120682879571 0.19589107470167264 0.40501206828801695 0.19589107470174358 0.18489032014682982 0.29546033635040414 0.005085543277311502 -0.6872424857532968
118500000.0 -0.01788914862645072 -0.682119247643284 0.20656871747303301 0.2913650602581863 0.4056602155766193 0.19537709369267234 0.40566021557665766 0.19537709369273473
 0.2065687174730331 0.29136506025818626 -0.017889148626248977 -0.6821192476431857 0.4056602155766634 0.19537709369274653 0.405660215576718 0.19537709369280548
 0.40566021557661924 0.19537709369267225 0.4056602155766635 0.1953770936927465 0.002395220051945833 -0.6863508438385733 0.186284348794633 0.29559665645346855
 0.4056602155766574 0.19537709369273445 0.40566021557671755 0.19537709369280537 0.1862843487946328 0.29559665645346833 0.0023952200521075223 -0.6863508438384835
119000000.0 -0.020526440873236254 -0.6811427706806369 0.20792193364178788 0.2914137711707261 0.4063022536156344 0.19486449975507988 0.40630225361567307 0.19486449975514236
 0.2079219336417879 0.29141377117072603 -0.020526440873034357 -0.681142770680539 0.4063022536156787 0.19486449975515407 0.40630225361573374 0.19486449975521308
 0.40630225361563427 0.1948644997550799 0.4063022536156788 0.19486449975515413 -0.0002772436888888456 -0.6854540549694622 0.1876727364574368 0.29572505545954425
 0.40630225361567285 0.1948644997551421 0.40630225361573324 0.194864499755213 0.18767273645743668 0.29572505545954403 -0.00027724368872683206 -0.6854540549693726
119500000.0 -0.023145518585573597 -0.6801619770655072 0.20926901541549986 0.29145536001275296 0.40693825158494634 0.1943533085265028 0.4069382515849853 0.19435330852656524
 0.20926901541549991 0.2914553600127529 -0.023145518585371148 -0.6801619770654096 0.40693825158499114 0.19435330852657703 0.40693825158504626 0.194353308526636
 0.40693825158494645 0.19435330852650276 0.40693825158499136 0.19435330852657706 -0.0029319648252545227 -0.6845522559660352 0.18905546165517742 0.2958456389132739
 0.40693825158498526 0.19435330852656504 0.4069382515850461 0.194353308526636 0.1890554616551773 0.29584563891327387 -0.0029319648250921123 -0.6845522559659459
120000000.0 -0.02574650948202843 -0.6791769998293632 0.2106099538303918 0.29148992985929667 0.4075682778257277 0.19384353498515972 0.4075682778257669 0.19384353498522214
 0.21060995383039174 0.29148992985929656 -0.02574650948182588 -0.6791769998292659 0.40756827782577276 0.19384353498523402 0.407568277825828 0.1938435349852929
 0.4075682778257276 0.19384353498515958 0.4075682778257729 0.19384353498523385 -0.005569059912088043 -0.6836455813916472 0.19043250426044764 0.29595851142157326
 0.4075682778257666 0.19384353498522203 0.4075682778258278 0.19384353498529278 0.19043250426044753 0.29595851142157314 -0.005569059911925424 -0.6836455813915577
120500000.0 -0.028329540790134805 -0.6781879696692 0.21194474109143902 0.29151758273401823 0.4081923998492569 0.19333519346771816 0.40819239984929645 0.19333519346778086
 0.21194474109143893 0.2915175827340182 -0.028329540789931964 -0.6781879696691028 0.4081923998493023 0.1933351934677926 0.408192399849358 0.19333519346785152
 0.40819239984925676 0.1933351934677182 0.40819239984930233 0.19333519346779263 -0.008188645165665046 -0.6827341635855865 0.19180384546696547 0.2960637766503977
 0.4081923998492963 0.19333519346778058 0.40819239984935773 0.1933351934678514 0.1918038454669653 0.29606377665039746 -0.008188645165502011 -0.6827341635854975
121000000.0 -0.030894739234002693 -0.6771950149833585 0.21327337054216539 0.29153841961012655 0.40881068434582746 0.19282829768674434 0.4088106843458672 0.19282829768680684
 0.21327337054216536 0.2915384196101264 -0.030894739233799616 -0.6771950149832617 0.4088106843458731 0.1928282976868186 0.40881068434592904 0.1928282976868774
 0.4088106843458273 0.1928282976867443 0.4088106843458732 0.19282829768681864 -0.010790836450410395 -0.681818132695249 0.1931694677585692 0.2961615373220098
 0.408810684345867 0.19282829768680668 0.4088106843459287 0.19282829768687743 0.19316946775856902 0.2961615373220096 -0.010790836450247162 -0.6818181326951601
121500000.0 -0.033442231022463215 -0.6761982619068768 0.21459583663500054 0.2915525404117049 0.4094231971936396 0.19232286074771515 0.4094231971936798 0.19232286074777785
 0.21459583663500043 0.2915525404117048 -0.033442231022259614 -0.6761982619067803 0.4094231971936857 0.19232286074778968 0.409423197193742 0.19232286074784857
 0.4094231971936395 0.19232286074771524 0.40942319719368586 0.1923228607477897 -0.013375749266200205 -0.6808976167079143 0.1945293548787336 0.2962518952127354
 0.4094231971936796 0.19232286074777766 0.4094231971937417 0.1923228607478485 0.19452935487873352 0.29625189521273515 -0.01337574926603644 -0.6808976167078259
122000000.0 -0.03597214183772816 -0.6751978343463808 0.21591213490219222 0.291560044015429 0.41003000346767593 0.1918188951656063 0.41003000346771634 0.19181889516566888
 0.21591213490219224 0.2915600440154289 -0.03597214183752447 -0.6751978343462847 0.41003000346772234 0.19181889516568063 0.41003000346777874 0.1918188951657395
 0.4100300034676757 0.19181889516560613 0.41003000346772234 0.19181889516568054 -0.015943498736143227 -0.6799727414821404 0.1958834918006031 0.296334951151181
 0.4100300034677162 0.19181889516566872 0.41003000346777857 0.19181889516573936 0.19588349180060308 0.2963349511511809 -0.015943498735979243 -0.6799727414820519
122500000.0 -0.03848459682455917 -0.6741938540145148 0.21722226192727165 0.29156102825265884 0.41063116744855144 0.1913164128810593 0.41063116744859207 0.19131641288112194
 0.21722226192727156 0.29156102825265867 -0.03848459682435494 -0.6741938540144186 0.4106311674485981 0.19131641288113374 0.41063116744865474 0.1913164128811925
 0.41063116744855116 0.19131641288105924 0.41063116744859823 0.19131641288113374 -0.01849419959483201 -0.6790436307787678 0.1972318646975405 0.2964108050169046
 0.41063116744859185 0.19131641288112172 0.41063116744865463 0.19131641288119242 0.1972318646975405 0.29641080501690453 -0.018494199594667818 -0.6790436307786796
123000000.0 -0.04097972057992034 -0.6731864404639151 0.2185262153170594 0.29155558991188807 0.41122675263133784 0.19081542527614567 0.41122675263137864 0.1908154252762084
 0.21852621531705932 0.2915555899118879 -0.04097972057971597 -0.673186440463819 0.4112267526313848 0.19081542527622017 0.41122675263144165 0.19081542527627887
 0.4112267526313375 0.19081542527614564 0.4112267526313849 0.19081542527622017 -0.021027966177048232 -0.6781104062915465 0.19857446091418324 0.2964795557395123
 0.4112267526313785 0.19081542527620832 0.4112267526314414 0.1908154252762789 0.19857446091418318 0.2964795557395122 -0.021027966176883735 -0.6781104062914582
123500000.0 -0.04345763714311354 -0.6721757111207345 0.21982399367421288 0.29154382474153645 0.41181682173435735 0.19031594318973202 0.4118168217343986 0.1903159431897947
 0.21982399367421276 0.2915438247415363 -0.04345763714290894 -0.6721757111206388 0.41181682173440465 0.1903159431898066 0.41181682173446194 0.19031594318986525
 0.4118168217343571 0.19031594318973197 0.41181682173440476 0.19031594318980652 -0.02354491240691188 -0.6771731876773781 0.19991126893800712 0.29654130129817285
 0.4118168217343982 0.19031594318979447 0.41181682173446166 0.19031594318986514 0.199911268938007 0.2965413012981727 -0.023544912406747085 -0.6771731876772903
124000000.0 -0.04591846998637304 -0.6711617813177161 0.22111559657030327 0.29152582745306777 0.4124014367079412 0.18981797693245822 0.41240143670798274 0.1898179769325208
 0.22111559657030333 0.2915258274530677 -0.04591846998616797 -0.6711617813176207 0.41240143670798907 0.18981797693253274 0.41240143670804646 0.1898179769325913
 0.4124014367079411 0.1898179769324582 0.4124014367079892 0.1898179769325328 -0.02604515178746366 -0.6762320925861838 0.20124227837139008 0.29659613872152846
 0.41240143670798257 0.18981797693252064 0.4124014367080462 0.18981797693259125 0.20124227837138997 0.29659613872152824 -0.026045151787298822 -0.6762320925860962
124500000.0 -0.04836234200591083 -0.6701447643268235 0.22240102451941943 0.29150169172441914 0.41298065874315176 0.1893215363013371 0.41298065874319334 0.18932153630139997
 0.22240102451941934 0.2915016917244189 -0.04836234200570542 -0.6701447643267284 0.4129806587431998 0.18932153630141169 0.41298065874325735 0.1893215363014704
 0.41298065874315154 0.18932153630133702 0.41298065874320006 0.18932153630141163 -0.028528797390668686 -0.6752872366903981 0.2025674799041732 0.29664416408798633
 0.41298065874319323 0.1893215363013998 0.41298065874325723 0.18932153630147042 0.20256747990417306 0.2966441640879863 -0.02852879739050313 -0.6752872366903102
125000000.0 -0.050789375513401264 -0.6691247713914295 0.22368027895228948 0.2914715102037273 0.41355454828046156 0.18882663059398683 0.41355454828050364 0.1888266305940498
 0.2236802789522894 0.2914715102037272 -0.05078937551319564 -0.6691247713913344 0.4135545482805099 0.18882663059406155 0.41355454828056787 0.18882663059412017
 0.4135545482804613 0.1888266305939868 0.41355454828051 0.18882663059406152 -0.030995961847828355 -0.6743387337140881 0.20388686528671252 0.29668547252637867
 0.4135545482805033 0.1888266305940495 0.4135545482805677 0.18882663059412008 0.2038868652867124 0.29668547252637856 -0.03099596184766249 -0.6743387337140008
125500000.0 -0.05319969222788751 -0.6681019117580683 0.2249533621909155 0.29143537451333856 0.4141231650183916 0.18833326862250174 0.4141231650184338 0.18833326862256455
 0.22495336219091538 0.29143537451333834 -0.053199692227681984 -0.6681019117579737 0.4141231650184402 0.18833326862257613 0.4141231650184984 0.18833326862263472
 0.4141231650183913 0.18833326862250171 0.4141231650184403 0.18833326862257618 -0.03344675734039444 -0.6733866954617088 0.2052004273034179 0.29672015821697184
 0.41412316501843355 0.18833326862256444 0.4141231650184982 0.1883332686226348 0.20520042730341778 0.2967201582169717 -0.03344675734022829 -0.6733866954616216
126000000.0 -0.05559341326810471 -0.6670762927077545 0.22622027742371378 0.2913933752540864 0.41468656792210057 0.1878414587269718 0.41468656792214315 0.18784145872703456
 0.2262202774237136 0.29139337525408615 -0.05559341326789845 -0.66707629270766 0.4146865679221496 0.18784145872704636 0.41468656792220804 0.18784145872710492
 0.4146865679221004 0.18784145872697178 0.4146865679221497 0.18784145872704638 -0.035881295591169655 -0.6724312318464891 0.2065081597467744 0.2967483143928137
 0.4146865679221429 0.18784145872703442 0.4146865679222078 0.1878414587271048 0.20650815974677428 0.2967483143928135 -0.03588129559100347 -0.6724312318464022
126500000.0 -0.05797065914519882 -0.666048019586872 0.22748102868115436 0.29134560200982623 0.415244815231927 0.1873512087886619 0.4152448152319699 0.18735120878872474
 0.22748102868115416 0.29134560200982595 -0.05797065914499265 -0.6660480195867783 0.41524481523197637 0.18735120878873637 0.4152448152320351 0.18735120878879485
 0.4152448152319267 0.1873512087886617 0.4152448152319764 0.1873512087887363 -0.038299687855888075 -0.6714724509184565 0.20781005739183933 0.29677003334140306
 0.41524481523196954 0.18735120878872452 0.4152448152320348 0.18735120878879488 0.20781005739183922 0.29677003334140306 -0.038299687855721486 -0.6714724509183695
127000000.0 -0.06033154975584099 -0.6650171958376404 0.2287356208118929 0.2912921433522132 0.4157979644718785 0.18686252624285332 0.4157979644719217 0.18686252624291622
 0.22873562081189283 0.2912921433522131 -0.060331549755634456 -0.6650171958375466 0.4157979644719281 0.1868625262429279 0.41579796447198697 0.18686252624298644
 0.4157979644718783 0.18686252624285324 0.41579796447192824 0.18686252624292785 -0.04070204491516411 -0.670510458892102 0.2091061159712117 0.29678540640666734
 0.41579796447192136 0.186862526242916 0.41579796447198675 0.18686252624298624 0.2091061159712116 0.2967854064066673 -0.04070204491499724 -0.6705104588920153
127500000.0 -0.06267620437571535 -0.6639839230281553 0.22998405945938769 0.2912330868457112 0.41634607245806793 0.1863754180913627 0.41634607245811134 0.18637541809142563
 0.2299840594593877 0.29123308684571114 -0.06267620437550847 -0.6639839230280616 0.41634607245811794 0.1863754180914373 0.41634607245817706 0.18637541809149571
 0.41634607245806776 0.18637541809136268 0.41634607245811817 0.1863754180914372 -0.043088477066798754 -0.669545360173689 0.21039633215046666 0.29679452399123735
 0.41634607245811117 0.1863754180914254 0.41634607245817684 0.1863754180914956 0.2103963321504666 0.2967945239912372 -0.043088477066631686 -0.6695453601736026
128000000.0 -0.06500474165337702 -0.6629483008820161 0.2312263510389962 0.2911685190528196 0.4168891953070941 0.18588989091473992 0.4168891953071378 0.18588989091480296
 0.23122635103899616 0.29116851905281943 -0.06500474165316994 -0.6629483008819228 0.4168891953071444 0.18588989091481453 0.41688919530720386 0.18588989091487304
 0.41688919530709395 0.1858898909147399 0.4168891953071445 0.18588989091481456 -0.04545909411843732 -0.6685772573882071 0.21168070350405202 0.2967974755590032
 0.4168891953071375 0.18588989091480274 0.4168891953072035 0.18588989091487298 0.21168070350405188 0.2967974755590031 -0.0454590941182698 -0.6685772573881206
128500000.0 -0.0673172796044643 -0.6619104273075386 0.23246250271554272 0.29109852553950905 0.4174273884443641 0.18540595088415737 0.41742738844440797 0.18540595088422038
 0.2324625027155427 0.29109852553950893 -0.06731727960425699 -0.6619104273074454 0.41742738844441485 0.18540595088423206 0.41742738844447436 0.1854059508842904
 0.4174273884443639 0.1854059508841574 0.4174273884444149 0.18540595088423206 -0.04781400538056502 -0.6676062514059778 0.21295922849163898 0.2967943496379411
 0.41742738844440785 0.18540595088422018 0.41742738844447413 0.18540595088429038 0.21295922849163887 0.29679434963794094 -0.047814005380397345 -0.6676062514058917
129000000.0 -0.06961393560625889 -0.6608703984265583 0.233692522381352 0.291023190880853 0.4179607066123565 0.18492360377299605 0.4179607066124007 0.18492360377305894
 0.23369252238135194 0.2910231908808529 -0.06961393560605111 -0.6608703984264652 0.4179607066124074 0.1849236037730707 0.4179607066124672 0.184923603773129
 0.4179607066123563 0.18492360377299594 0.41796070661240753 0.1849236037730707 -0.05015331965983431 -0.6666324413689106 0.21423190643492304 0.29678523382319805
 0.4179607066124005 0.18492360377305875 0.41796070661246704 0.18492360377312891 0.21423190643492293 0.29678523382319794 -0.050153319659666414 -0.6666324413688247
129500000.0 -0.07189482639258049 -0.6598283086028286 0.23491641863474025 0.29094259866684485 0.41848920387882266 0.18444285496813653 0.4184892038788673 0.18444285496819945
 0.23491641863474014 0.29094259866684463 -0.07189482639237252 -0.659828308602736 0.418489203878874 0.18444285496821117 0.4184892038789342 0.18444285496826937
 0.4184892038788225 0.18444285496813648 0.4184892038788741 0.18444285496821114 -0.05247714525271301 -0.665655924716415 0.2154987374948682 0.29677021478042387
 0.418489203878867 0.1844428549681992 0.418489203878934 0.1844428549682693 0.21549873749486814 0.29677021478042365 -0.05247714525254481 -0.6656559247163293
130000000.0 -0.07416006804900847 -0.6587842504700209 0.23613420075895844 0.29085683150838915 0.4190129336449273 0.18396370948096102 0.419012933644972 0.18396370948102403
 0.23613420075895844 0.29085683150838915 -0.07416006804880029 -0.6587842504699281 0.4190129336449788 0.18396370948103577 0.41901293364503917 0.18396370948109406
 0.41901293364492714 0.18396370948096105 0.41901293364497894 0.18396370948103577 -0.0547855899394466 -0.6646767972109742 0.21675972264939194 0.2967493782493353
 0.4190129336449719 0.18396370948102403 0.41901293364503883 0.18396370948109406 0.2167597226493918 0.2967493782493352 -0.05478558993927799 -0.6646767972108883
130500000.0 -0.07640977600841894 -0.6577383149593219 0.23734587870157947 0.2907659710434605 0.4195319486533216 0.18348617195807695 0.41953194865336674 0.18348617195814
 0.23734587870157944 0.2907659710434603 -0.07640977600821021 -0.6577383149592294 0.4195319486533736 0.18348617195815164 0.41953194865343413 0.18348617195820988
 0.41953194865332144 0.18348617195807698 0.41953194865337373 0.18348617195815176 -0.05707876097832375 -0.6636951529633763 0.21801486367147996 0.29672280904750775
 0.41953194865336635 0.18348617195813974 0.4195319486534339 0.18348617195820982 0.21801486367147982 0.2967228090475076 -0.057078760978154994 -0.663695152963291
131000000.0 -0.0786440650468281 -0.6566905913266463 0.23855146305432318 0.29067009794341486 0.4200463009961541 0.18301024669176313 0.4200463009961993 0.18301024669182606
 0.238551463054323 0.29067009794341464 -0.07864406504661896 -0.6566905913265543 0.4200463009962064 0.18301024669183794 0.42004630099626716 0.18301024669189592
 0.42004630099615375 0.18301024669176297 0.42004630099620666 0.1830102466918379 -0.059356765100239024 -0.662711084457616 0.2192641631077297 0.29669059107437695
 0.42004630099619894 0.1830102466918258 0.4200463009962669 0.1830102466918959 0.2192641631077296 0.2966905910743768 -0.05935676510007021 -0.6627110844575307
131500000.0 -0.08086304927953411 -0.6556411671794553 0.23975096503331178 0.2905692919194486 0.4205560421230125 0.18253593763015158 0.4205560421230581 0.18253593763021453
 0.23975096503331175 0.2905692919194486 -0.08086304927932514 -0.6556411671793634 0.420556042123065 0.18253593763022635 0.4205560421231261 0.1825359376302843
 0.42055604212301234 0.18253593763015155 0.42055604212306513 0.18253593763022627 -0.06161970850354242 -0.6617246825754596 0.22050762425731552 0.29665280731544563
 0.42055604212305775 0.18253593763021433 0.42055604212312586 0.18253593763028417 0.22050762425731543 0.29665280731544535 -0.061619708503373394 -0.6617246825753746
132000000.0 -0.08306684215754861 -0.6545901285031916 0.24094439645975127 0.2904636317291948 0.42106122284879954 0.1820632483871475 0.42106122284884534 0.18206324838721047
 0.24094439645975127 0.29046363172919476 -0.08306684215733917 -0.6545901285031 0.4210612228488525 0.18206324838722227 0.42106122284891373 0.18206324838728027
 0.4210612228487994 0.18206324838714752 0.42106122284885267 0.18206324838722227 -0.06386769684917014 -0.6607360366206859 0.22174525115136834 0.29660953984668204
 0.4210612228488452 0.18206324838721044 0.4210612228489135 0.1820632483872803 0.22174525115136817 0.29660953984668187 -0.06386769684900058 -0.660736036620601
132500000.0 -0.08525555646430312 -0.6535375596873374 0.24213176974102665 0.2903531951834465 0.42156189336153876 0.18159218225209553 0.42156189336158495 0.1815921822521586
 0.2421317697410266 0.2903531951834464 -0.08525555646409358 -0.6535375596872463 0.4215618933615921 0.1815921822521702 0.42156189336165356 0.1815921822522282
 0.4215618933615386 0.18159218225209547 0.42156189336159217 0.18159218225217016 -0.0661008352560469 -0.6597452343429999 0.22297704853276548 0.29656086983910146
 0.4215618933615848 0.18159218225215842 0.42156189336165345 0.18159218225222817 0.22297704853276543 0.29656086983910135 -0.06610083525587689 -0.6597452343429152
133000000.0 -0.08742930431263307 -0.6524835435510938 0.2433130978522107 0.2902380591530003 0.42205810323011156 0.18112274219919786 0.42205810323015786 0.18112274219926072
 0.24331309785221067 0.29023805915300027 -0.08742930431242324 -0.6524835435510028 0.422058103230165 0.18112274219927255 0.4220581032302267 0.18112274219933042
 0.42205810323011134 0.18112274219919783 0.4220581032301651 0.18112274219927246 -0.06831922829675202 -0.6587523619616238 0.22420302183632512 0.296506877563523
 0.4220581032301575 0.1811227421992606 0.4220581032302263 0.1811227421993304 0.224203021836325 0.29650687756352295 -0.06831922829658219 -0.6587523619615393
133500000.0 -0.08958819714201934 -0.6514281613686889 0.244488394317975 0.2901182995756125 0.422549901411922 0.18065493089669046 0.4225499014119686 0.18065493089675339
 0.244488394317975 0.2901182995756124 -0.08958819714180906 -0.6514281613685983 0.4225499014119759 0.1806549308967651 0.4225499014120378 0.18065493089682286
 0.42254990141192184 0.1806549308966904 0.422549901411976 0.1806549308967651 -0.07052297999344614 -0.6577575041885722 0.22542317716939717 0.2964476423954884
 0.42254990141196835 0.18065493089675314 0.4225499014120376 0.18065493089682286 0.22542317716939705 0.2964476423954882 -0.0705229799932759 -0.657757504188488
134000000.0 -0.09173234571608778 -0.6503714928943205 0.24565767319489848 0.2899939914630576 0.42303733626049406 0.1801887507157843 0.42303733626054096 0.18018875071584742
 0.24565767319489845 0.2899939914630575 -0.09173234571587706 -0.6503714928942298 0.4230373362605483 0.180188750715859 0.42303733626061046 0.180188750715917
 0.42303733626049383 0.18018875071578438 0.4230373362605484 0.1801887507158592 -0.07271219381404306 -0.6567607442516089 0.22663752129284906 0.2963832428203392
 0.4230373362605408 0.18018875071584733 0.4230373362606103 0.1801887507159171 0.22663752129284898 0.296383242820339 -0.07271219381387219 -0.6567607442515246
134500000.0 -0.09386186012035289 -0.6493136163867312 0.24682094905416535 0.28986520890828454 0.42352045553299317 0.17972420373937714 0.42352045553304013 0.17972420373944017
 0.24682094905416535 0.2898652089082846 -0.09386186012014217 -0.6493136163866408 0.4235204555330475 0.17972420373945192 0.42352045553310985 0.1797242037395097
 0.4235204555329929 0.17972420373937717 0.42352045553304757 0.17972420373945175 -0.07488697266862819 -0.655762163916894 0.22784606160243576 0.29631375643844005
 0.42352045553304 0.17972420373944006 0.42352045553310946 0.17972420373950967 0.22784606160243565 0.29631375643843993 -0.07488697266845731 -0.6557621639168097
135000000.0 -0.09597684976020389 -0.6482546086334299 0.24797823696464835 0.2897320250926614 0.4239993063976768 0.17926129177053915 0.42399930639772404 0.1792612917706022
 0.24797823696464827 0.2897320250926612 -0.09597684975999304 -0.6482546086333398 0.4239993063977315 0.17926129177061384 0.42399930639779393 0.17926129177067163
 0.4239993063976765 0.17926129177053912 0.42399930639773165 0.1792612917706138 -0.07704741890611207 -0.6547618435113184 0.22904880611055156 0.2962392599705423
 0.423999306397724 0.17926129177060213 0.4239993063977938 0.17926129177067174 0.2290488061105515 0.29623925997054235 -0.07704741890594084 -0.6547618435112343
135500000.0 -0.09807742335911855 -0.6471945449745542 0.24912955247636812 0.2895945122933016 0.42447393544127393 0.1788000163407824 0.4244739354413215 0.1788000163408453
 0.24912955247636806 0.28959451229330135 -0.0980774233589074 -0.6471945449744644 0.424473935441329 0.17880001634085702 0.4244739354413918 0.17880001634091472
 0.4244739354412736 0.17880001634078235 0.42447393544132905 0.17880001634085707 -0.07919363431111288 -0.6537598619445375 0.23024576342835743 0.2961598292632776
 0.4244739354413212 0.1788000163408452 0.4244739354413915 0.17880001634091475 0.2302457634283573 0.2961598292632775 -0.07919363431094151 -0.6537598619444539
136000000.0 -0.1001636889571034 -0.6461334993263835 0.25027491160432314 0.2894527418904662 0.4249443886762885 0.17834037871811548 0.42494438867633627 0.17834037871817848
 0.25027491160432314 0.28945274189046616 -0.10016368895689204 -0.6461334993262938 0.4249443886763438 0.17834037871819008 0.4249443886764068 0.17834037871824787
 0.4249443886762882 0.17834037871811537 0.42494438867634376 0.17834037871819003 -0.08132572010106161 -0.6527562967306998 0.23143694274827628 0.2960755392947751
 0.4249443886763361 0.17834037871817834 0.4249443886764065 0.17834037871824773 0.23143694274827617 0.29607553929477504 -0.08132572010088977 -0.6527562967306162
136500000.0 -0.10223575390935045 -0.6450715442045049 0.25141433081268494 0.2893067843750362 0.42541071154823085 0.17788237991489247 0.425410711548279 0.1778823799149554
 0.2514143308126848 0.289306784375036 -0.10223575390913901 -0.6450715442044155 0.4254107115482864 0.177882379914967 0.4254107115483497 0.1778823799150247
 0.42541071154823057 0.1778823799148924 0.4254107115482866 0.17788237991496705 -0.08344377692352362 -0.6517512240098735 0.23262235382685298 0.2959864641803973
 0.4254107115482787 0.17788237991495523 0.4254107115483494 0.1778823799150246 0.23262235382685287 0.2959864641803972 -0.08344377692335173 -0.6517512240097902
137000000.0 -0.1042937248851044 -0.644008750746638 0.2525478269993493 0.2891567093560432 0.42587294894277494 0.17742602069545627 0.42587294894282324 0.1774260206955192
 0.25254782699934936 0.28915670935604315 -0.10429372488489215 -0.6440087507465487 0.425872948942831 0.177426020695531 0.42587294894289446 0.17742602069558847
 0.4258729489427748 0.1774260206954562 0.4258729489428311 0.17742602069553093 -0.08554790485373105 -0.6507447185691831 0.23380200696797152 0.2958926771785811
 0.4258729489428232 0.1774260206955191 0.42587294894289424 0.17742602069558847 0.23380200696797143 0.295892677178581 -0.08554790485355902 -0.6507447185690999
137500000.0 -0.1063377078667305 -0.642945188735119 0.25367541748084116 0.28900258556826275 0.42633114519284177 0.17697130158358812 0.42633114519289045 0.17697130158365093
 0.2536754174808412 0.2890025855682627 -0.10633770786651806 -0.6429451887350297 0.4263311451928982 0.17697130158366275 0.4263311451929619 0.1769713015837201
 0.4263311451928417 0.176971301583588 0.42633114519289833 0.17697130158366267 -0.08763820339231865 -0.6497368538636481 0.23497591300642473 0.2957942506967845
 0.4263311451928902 0.1769713015836508 0.42633114519296156 0.17697130158372004 0.2349759130064246 0.2957942506967844 -0.08763820339214642 -0.6497368538635653
138000000.0 -0.10836780814898356 -0.6418809266190526 0.2547971199775624 0.28884448087985254 0.42678534408560764 0.17651822286976077 0.4267853440856565 0.17651822286982363
 0.2547971199775623 0.28884448087985237 -0.10836780814877117 -0.6418809266189638 0.4267853440856642 0.1765182228698353 0.4267853440857281 0.17651822286989263
 0.4267853440856075 0.1765182228697607 0.4267853440856643 0.1765182228698353 -0.08971477146325534 -0.6487277020367341 0.23614408329182943 0.29569125629752685
 0.4267853440856562 0.17651822286982335 0.4267853440857279 0.17651822286989255 0.23614408329182923 0.29569125629752674 -0.08971477146308308 -0.6487277020366515
138500000.0 -0.11038413033846313 -0.6408160315361326 0.2559129525993795 0.28868246230004085 0.42723558886943847 0.17606678461820766 0.42723558886948765 0.17606678461827052
 0.25591295259937963 0.28868246230004085 -0.11038413033825062 -0.6408160315360442 0.4272355888694954 0.1760667846182822 0.4272355888695596 0.17606678461833947
 0.42723558886943835 0.17606678461820768 0.42723558886949553 0.17606678461828215 -0.09177770741197244 -0.647717333940618 0.23730652967288388 0.29558376470451914
 0.4272355888694874 0.17606678461827036 0.42723558886955915 0.17606678461833944 0.2373065296728836 0.29558376470451886 -0.09177770741179982 -0.6477173339405355
139000000.0 -0.1123867783532544 -0.6397505693341369 0.25702293383154573 0.288516595986851 0.42768192226075097 0.1756169866738057 0.4276819222608002 0.1756169866738686
 0.2570229338315457 0.2885165959868509 -0.11238677835304182 -0.6397505693340485 0.4276819222608081 0.17561698667388023 0.4276819222608722 0.17561698667393746
 0.4276819222607507 0.17561698667380565 0.4276819222608081 0.1756169866738801 -0.09382710900367372 -0.6467058191561688 0.2384632644819598 0.29547184580887564
 0.4276819222608 0.17561698667386844 0.427681922260872 0.1756169866739375 0.2384632644819597 0.29547184580887564 -0.09382710900350065 -0.6467058191560863
139500000.0 -0.11437585542274577 -0.638684604592099 0.25812708252094546 0.2883469472548627 0.4281243864507962 0.17516882866878175 0.4281243864508458 0.17516882866884464
 0.2581270825209454 0.28834694725486265 -0.11437585542253281 -0.6386846045920108 0.42812438645085366 0.1751688286688563 0.42812438645091805 0.17516882866891356
 0.42812438645079604 0.17516882866878183 0.4281243864508537 0.17516882866885627 -0.09586307342182902 -0.6456932260126483 0.2396143005200238 0.2953555686754049
 0.42812438645084566 0.17516882866884453 0.4281243864509178 0.1751688286689135 0.23961430052002367 0.29535556867540486 -0.09586307342165584 -0.6456932260125661
140000000.0 -0.11635146408761886 -0.6376182006411634 0.2592254178626647 0.2881735805830037 0.42856302311237315 0.17472231002924485 0.4285630231124229 0.17472231002930771
 0.2592254178626645 0.28817358058300346 -0.11635146408740596 -0.6376182006410754 0.4285630231124308 0.17472231002931923 0.42856302311249533 0.1747223100293765
 0.42856302311237277 0.17472231002924477 0.42856302311243083 0.17472231002931918 -0.0978856972668433 -0.6446796216071367 0.24075965104188357 0.29523500154896953
 0.4285630231124226 0.17472231002930758 0.4285630231124951 0.17472231002937644 0.24075965104188357 0.2952350015489694 -0.09788569726666976 -0.6446796216070546
140500000.0 -0.11831370620000595 -0.6365514195851266 0.26031795938687124 0.28799655962236387 0.42899787340646306 0.17427742998154705 0.4289978734065132 0.17427742998161
 0.2603179593868712 0.2879965596223638 -0.1183137061997927 -0.6365514195850388 0.428997873406521 0.17427742998162152 0.4289978734065859 0.17427742998167872
 0.4289978734064628 0.17427742998154705 0.42899787340652096 0.17427742998162146 -0.09989507655489299 -0.6436650718236823 0.24189932974175274 0.2951102118609122
 0.428997873406513 0.1742774299816098 0.4289978734065857 0.17427742998167856 0.2418993297417527 0.2951102118609121 -0.09989507655471917 -0.6436650718236006
141000000.0 -0.12026268292380389 -0.6354843223206657 0.26140472694600697 0.287815947204034 0.4294289779887937 0.17383418755848243 0.42942897798884416 0.17383418755854538
 0.2614047269460069 0.287815947204034 -0.12026268292359038 -0.635484322320578 0.4294289779888521 0.17383418755855684 0.42942897798891716 0.17383418755861407
 0.4294289779887935 0.17383418755848254 0.42942897798885205 0.1738341875585568 -0.10189130671693107 -0.642649641352182 0.2430333507391285 0.2949812662355432
 0.42942897798884394 0.17383418755854532 0.4294289779889168 0.17383418755861407 0.24303335073912843 0.2949812662355431 -0.10189130671675684 -0.6426496413521001
141500000.0 -0.12219849473514666 -0.6344169685572634 0.26248574070228137 0.28763180534695676 0.4298563770163276 0.17339258160532103 0.42985637701637813 0.17339258160538384
 0.26248574070228137 0.28763180534695665 -0.12219849473493267 -0.6344169685571761 0.4298563770163862 0.17339258160539534 0.4298563770164514 0.17339258160545232
 0.42985637701632723 0.1733925816053209 0.4298563770163861 0.1733925816053953 -0.10387448259784889 -0.6416333937069947 0.24416172856497836 0.29484823049668063
 0.4298563770163778 0.17339258160538368 0.4298563770164511 0.17339258160545234 0.24416172856497828 0.2948482304966806 -0.10387448259767472 -0.6416333937069132
142000000.0 -0.12412124142302476 -0.6333494168368312 0.2635610211154628 0.2874441952657926 0.4302801101536756 0.17295261078568788 0.43028011015372636 0.1729526107857507
 0.2635610211154628 0.2874441952657927 -0.12412124142281085 -0.633349416836744 0.4302801101537345 0.17295261078576227 0.4302801101537999 0.17295261078581933
 0.4302801101536755 0.17295261078568797 0.4302801101537345 0.17295261078576224 -0.10584469845579537 -0.6406163912452885 0.24528447814822815 0.29471116967424266
 0.4302801101537262 0.17295261078575067 0.43028011015379974 0.17295261078581922 0.2452844781482281 0.2947111696742426 -0.10584469845562107 -0.640616391245207
142500000.0 -0.12603102209005143 -0.6322817245530304 0.2646305889309612 0.28725317737879236 0.4307002165794393 0.17251427358728866 0.43070021657949054 0.17251427358735158
 0.2646305889309611 0.28725317737879225 -0.12603102208983705 -0.6322817245529436 0.4307002165794985 0.17251427358736313 0.4307002165795643 0.17251427358742005
 0.4307002165794392 0.1725142735872887 0.4307002165794986 0.1725142735873631 -0.10780204796164491 -0.6395986951851286 0.24640161480254927 0.2945701480108832
 0.43070021657949015 0.1725142735873514 0.43070021657956403 0.17251427358742003 0.24640161480254913 0.2945701480108831 -0.1078020479614702 -0.6395986951850474
143000000.0 -0.12792793515336484 -0.6312139479703042 0.2656944651681963 0.2870588113156743 0.43111673499247827 0.17207756832748547 0.4311167349925296 0.17207756832754845
 0.26569446516819617 0.28705881131567423 -0.12792793515315043 -0.6312139479702177 0.43111673499253766 0.1720775683275599 0.4311167349926038 0.1720775683276168
 0.4311167349924781 0.1720775683274855 0.4311167349925379 0.17207756832755977 -0.10974662419861025 -0.6385803656233077 0.2475131542134362 0.2944252289686703
 0.4311167349925294 0.17207756832754822 0.43111673499260345 0.17207756832761673 0.24751315421343598 0.29442522896867007 -0.10974662419843519 -0.6385803656232264
143500000.0 -0.12981207834566713 -0.6301461422426146 0.26675267110924655 0.28686115592550265 0.43152970361810405 0.17164249315872718 0.4315297036181555 0.17164249315878993
 0.2667526711092464 0.2868611559255026 -0.12981207834545247 -0.630146142242528 0.4315297036181638 0.17164249315880165 0.4315297036182297 0.17164249315885838
 0.4315297036181037 0.17164249315872726 0.4315297036181638 0.17164249315880153 -0.11167851966199797 -0.6375614615529175 0.24861911242557191 0.29427647523579864
 0.4315297036181553 0.17164249315878988 0.4315297036182295 0.17164249315885835 0.2486191124255718 0.2942764752357986 -0.11167851966182298 -0.6375614615528366
144000000.0 -0.13168354871639085 -0.6290783614318936 0.2678052282877728 0.28666026928456234 0.43193916021420237 0.17120904607383822 0.4319391602142542 0.17120904607390086
 0.26780522828777276 0.28666026928456223 -0.1316835487161759 -0.6290783614318075 0.43193916021426243 0.17120904607391238 0.4319391602143288 0.17120904607396908
 0.4319391602142022 0.17120904607383813 0.43193916021426254 0.17120904607391227 -0.11359782625909928 -0.6365420408806742 0.24971950583047584 0.2941239487333357
 0.4319391602142539 0.1712090460739007 0.4319391602143285 0.171209046073969 0.2497195058304757 0.2941239487333355 -0.11359782625892413 -0.6365420408805935
144500000.0 -0.13354244263299228 -0.6280106585262154 0.2688521584782118 0.286456208704227 0.43234514207728336 0.17077722491116756 0.4323451420773354 0.17077722491123026
 0.2688521584782117 0.286456208704227 -0.1335424426327773 -0.6280106585261293 0.4323451420773436 0.1707772249112419 0.4323451420774102 0.17077722491129843
 0.4323451420772832 0.17077722491116767 0.43234514207734365 0.1707772249112418 -0.11550463530921348 -0.6355221604439892 0.25081435115442785 0.293967710621994
 0.4323451420773352 0.17077722491123012 0.43234514207740987 0.1707772249112984 0.2508143511544277 0.2939677106219938 -0.115504635309038 -0.6355221604439089
145000000.0 -0.13538885578236212 -0.6269430854576825 0.2698934836852328 0.2862490307388196 0.4327476860484576 0.1703470273596059 0.43274768604850977 0.17034702735966864
 0.26989348368523264 0.2862490307388195 -0.13538885578214688 -0.6269430854575967 0.432747686048518 0.1703470273596802 0.4327476860485848 0.17034702735973678
 0.4327476860484572 0.17034702735960594 0.43274768604851804 0.1703470273596801 -0.11739903754379825 -0.6345018760277982 0.25190366544666354 0.2938078213089283
 0.4327476860485095 0.1703470273596684 0.4327476860485845 0.1703470273597366 0.2519036654466635 0.2938078213089281 -0.11739903754362264 -0.6345018760277181
145500000.0 -0.13722288317235465 -0.6258756931200429 0.2709292261334544 0.28603879119345793 0.43314682851934266 0.16991845096346786 0.4331468285193953 0.1699184509635306
 0.2709292261334544 0.2860387911934578 -0.13722288317213927 -0.6258756931199573 0.43314682851940356 0.169918450963542 0.43314682851947045 0.16991845096359862
 0.4331468285193425 0.16991845096346783 0.43314682851940356 0.169918450963542 -0.11928112310674487 -0.6334812423811453 0.252987466067839 0.2936443404545532
 0.43314682851939496 0.16991845096353037 0.4331468285194701 0.1699184509635985 0.2529874660678389 0.293644340454553 -0.1192811231065689 -0.6334812423810652
146000000.0 -0.1390446191334263 -0.6248085313860304 0.27195940825741455 0.28582554513188674 0.43354260543789813 0.16949149312724845 0.4335426054379509 0.16949149312731102
 0.27195940825741444 0.28582554513188657 -0.13904461913321048 -0.6248085313859452 0.4335426054379594 0.1694914931273224 0.4335426054380265 0.16949149312737907
 0.43354260543789785 0.16949149312724823 0.4335426054379595 0.1694914931273224 -0.1211509815547718 -0.6324603132335271 0.2540657706787544 0.2934773269793759
 0.4335426054379505 0.16949149312731088 0.43354260543802614 0.16949149312737893 0.2540657706787542 0.2934773269793758 -0.12115098155459571 -0.6324603132334469
146500000.0 -0.14085415732038192 -0.6237416491244414 0.27298405269178866 0.2856093468842902 0.43393505231418844 0.1690661511202531 0.4339350523142415 0.16906615112031573
 0.27298405269178866 0.2856093468842901 -0.14085415732016596 -0.6237416491243564 0.43393505231425006 0.1690661511203272 0.4339350523143173 0.16906615112038362
 0.4339350523141883 0.16906615112025308 0.43393505231424995 0.16906615112032725 -0.12300870185793565 -0.6314391413110011 0.255138597229337 0.29330683907084276
 0.43393505231424123 0.16906615112031564 0.43393505231431706 0.16906615112038362 0.25513859722933685 0.29330683907084276 -0.12300870185775915 -0.6314391413109213
147000000.0 -0.14265159071422434 -0.6226750942169428 0.27400318226185305 0.28539025005508495 0.43432420422607737 0.16864242208110772 0.4343242042261305 0.1686424220811702
 0.2740031822618531 0.28539025005508484 -0.14265159071400843 -0.622675094216858 0.434324204226139 0.16864242208118155 0.43432420422620643 0.1686424220812379
 0.4343242042260771 0.16864242208110747 0.43432420422613904 0.1686424220811814 -0.12485437240025322 -0.6304177783520604 0.25620596394787637 0.29313293419019487
 0.43432420422613016 0.16864242208117006 0.4343242042262061 0.1686424220812379 0.2562059639478762 0.2931329341901948 -0.12485437240007664 -0.6304177783519804
147500000.0 -0.1444370116241036 -0.6216089135746237 0.2750168199741854 0.28516830753068795 0.4347100958248506 0.16822030302214744 0.43471009582490394 0.16822030302220994
 0.27501681997418537 0.28516830753068795 -0.14443701162388745 -0.621608913574539 0.43471009582491243 0.16822030302222135 0.43471009582498016 0.1682203030222777
 0.4347100958248503 0.16822030302214735 0.43471009582491255 0.1682203030222213 -0.12668808098043025 -0.6293962751232735 0.2572678893305066 0.2929556690793304
 0.43471009582490366 0.16822030302220978 0.4347100958249798 0.16822030302227756 0.2572678893305065 0.2929556690793303 -0.12668808098025372 -0.6293962751231938
148000000.0 -0.14621051168935975 -0.6205431531542849 0.27602498900759964 0.2849435714872601 0.43509276134077113 0.1677997908336928 0.4350927613408247 0.16779979083375526
 0.27602498900759953 0.28494357148725996 -0.14621051168914326 -0.6205431531542004 0.4350927613408333 0.16779979083376678 0.4350927613409012 0.16779979083382301
 0.4350927613407709 0.16779979083369279 0.4350927613408335 0.16779979083376678 -0.12850991481269788 -0.6283746814347021 0.25832439213093217 0.29277509976767013
 0.43509276134082453 0.16779979083375512 0.4350927613409011 0.16779979083382293 0.2583243921309321 0.29277509976766997 -0.1285099148125211 -0.6283746814346228
148500000.0 -0.14797218188165862 -0.6194778579744792 0.2770277127043104 0.28471609339842063 0.4354722345885647 0.16738088228821077 0.4354722345886185 0.16738088228827325
 0.27702771270431037 0.28471609339842047 -0.1479721818814417 -0.6194778579743949 0.43547223458862716 0.16738088228828474 0.43547223458869505 0.16738088228834092
 0.4354722345885646 0.16738088228821066 0.43547223458862727 0.16738088228828463 -0.13031996052774658 -0.6273530461550887 0.2593754913503932 0.2925912815790228
 0.4354722345886183 0.16738088228827305 0.4354722345886949 0.1673808822883409 0.25937549135039306 0.29259128157902276 -0.13031996052756964 -0.6273530461550093
149000000.0 -0.14972211250721426 -0.6184130721312989 0.27802501456132245 0.2844859240429316 0.43584854897283654 0.16696357404436624 0.43584854897289044 0.1669635740444286
 0.2780250145613225 0.2844859240429315 -0.14972211250699755 -0.618413072131215 0.4358485489728994 0.16696357404443996 0.43584854897296743 0.16696357404449597
 0.43584854897283626 0.16696357404436615 0.4358485489728994 0.16696357404443993 -0.13211830417376053 -0.6263314172268228 0.26042120622786286 0.2924042691384482
 0.4358485489728903 0.1669635740444285 0.4358485489729672 0.16696357404449608 0.2604212062278629 0.2924042691384481 -0.1321183041735832 -0.6263314172267439
149500000.0 -0.15146039320909854 -0.6173488388139179 0.27901691822203706 0.28425311351235005 0.43622173749342086 0.16654786265096716 0.4362217374934752 0.16654786265102983
 0.2790169182220371 0.28425311351235005 -0.15146039320888133 -0.6173488388138338 0.4362217374934839 0.16654786265104102 0.43622173749355236 0.16654786265109717
 0.43622173749342075 0.16654786265096724 0.43622173749348386 0.16654786265104102 -0.13390503121754366 -0.6253098416806897 0.26146155623047657 0.292214116379115
 0.4362217374934751 0.16654786265102955 0.43622173749355203 0.16654786265109714 0.2614615562304765 0.2922141163791148 -0.13390503121736586 -0.6253098416806109
150000000.0 -0.15318711296962523 -0.6162852003198884 0.28000344746807726 0.28401771121864583 0.436591832750664 0.16613374455080554 0.4365918327507184 0.16613374455086782
 0.28000344746807726 0.28401771121864583 -0.15318711296940787 -0.6162852003198046 0.4365918327507274 0.1661337445508794 0.43659183275079577 0.16613374455093527
 0.4365918327506639 0.1661337445508055 0.4365918327507273 0.16613374455087931 -0.13568022654573783 -0.6242883656503999 0.26249656104418434 0.29202087654915015
 0.43659183275071817 0.16613374455086774 0.43659183275079544 0.16613374455093524 0.26249656104418406 0.29202087654915015 -0.13568022654556028 -0.6242883656503212
150500000.0 -0.15490236011281983 -0.6152221980702011 0.2809846262113216 0.2837797659017826 0.43695886695063896 0.16572121608439433 0.43695886695069364 0.1657212160844568
 0.2809846262113214 0.2837797659017825 -0.15490236011260233 -0.6152221980701175 0.4369588669507023 0.1657212160844682 0.4369588669507712 0.16572121608452406
 0.4369588669506386 0.16572121608439438 0.4369588669507024 0.16572121608446813 -0.13744397446612983 -0.6232670343869053 0.26352624056462587 0.2918246022184798
 0.43695886695069336 0.16572121608445667 0.4369588669507709 0.16572121608452403 0.26352624056462565 0.2918246022184796 -0.13744397446595186 -0.6232670343868268
151000000.0 -0.15660622230695612 -0.6141598726241061 0.28196047848614403 0.2835393256372619 0.43732287191029545 0.16531027349360866 0.4373228719103504 0.16531027349367103
 0.28196047848614403 0.2835393256372618 -0.1566062223067384 -0.6141598726240229 0.43732287191035935 0.16531027349368232 0.4373228719104283 0.1653102734937382
 0.43732287191029523 0.16531027349360852 0.43732287191035935 0.16531027349368227 -0.13919635870903913 -0.6222458922725053 0.26455061488822135 0.29162534528565354
 0.43732287191035013 0.1653102734936708 0.4373228719104281 0.16531027349373817 0.2645506148882213 0.2916253452856535 -0.13919635870886105 -0.6222458922724268
151500000.0 -0.15829878656716892 -0.6130982636937025 0.28293102844185836 0.2832964378436254 0.43768387906254475 0.16490091292522585 0.43768387906259987 0.16490091292528822
 0.2829310284418583 0.2832964378436253 -0.15829878656695123 -0.6130982636936196 0.4376838790626087 0.16490091292529954 0.4376838790626778 0.1649009129253553
 0.43768387906254425 0.16490091292522582 0.43768387906260864 0.16490091292529946 -0.14093746242879115 -0.6212249828347421 0.2655697043034747 0.2914231569846578
 0.4376838790625995 0.16490091292528797 0.4376838790626774 0.16490091292535528 0.2655697043034746 0.2914231569846577 -0.14093746242861283 -0.6212249828346641
152000000.0 -0.1599801392581316 -0.6120374101582967 0.28389630033535596 0.2830511492899199 0.4380419194612768 0.16449313043437677 0.43804191946133214 0.1644931304344391
 0.2838963003353559 0.2830511492899198 -0.15998013925791374 -0.6120374101582138 0.43804191946134113 0.16449313043445038 0.43804191946141036 0.16449313043450614
 0.4380419194612767 0.1644931304343768 0.43804191946134124 0.16449313043445032 -0.14266736820526627 -0.6202043487600939 0.26658352928248474 0.29121808789170983
 0.43804191946133203 0.16449313043443903 0.4380419194614102 0.16449313043450614 0.2665835292824847 0.2912180878917098 -0.14266736820508766 -0.6202043487600157
152500000.0 -0.16165036609680003 -0.6109773500785348 0.284856318523942 0.2828035061031142 0.43839702378631773 0.16408692198789956 0.43839702378637335 0.16408692198796188
 0.284856318523942 0.28280350610311417 -0.16165036609658193 -0.6109773500784521 0.43839702378638223 0.16408692198797317 0.4383970237864517 0.1640869219880289
 0.43839702378631756 0.1640869219878996 0.4383970237863823 0.1640869219879731 -0.144386158045526 -0.61918403190746 0.267592110472662 0.29101018793203215
 0.4383970237863732 0.16408692198796176 0.43839702378645146 0.16408692198802885 0.26759211047266196 0.29101018793203204 -0.1443861580453472 -0.6191840319073819
153000000.0 -0.16330955215521809 -0.6099181207103123 0.2858111074583573 0.2825535537754763 0.4387492223483188 0.16368228346760827 0.43874922234837466 0.1636822834676704
 0.2858111074583572 0.28255355377547625 -0.1633095521549998 -0.6099181207102295 0.43874922234838354 0.1636822834676817 0.43874922234845326 0.16368228346773736
 0.43874922234831853 0.16368228346760824 0.43874922234838365 0.1636822834676817 -0.14609391338551017 -0.61816407332145 0.2685954686886436 0.29079950638660707
 0.4387492223483743 0.16368228346767036 0.4387492223484529 0.16368228346773733 0.2685954686886434 0.29079950638660695 -0.14609391338533131 -0.6181640733213721
153500000.0 -0.16495778186338214 -0.6088597585184627 0.28676069167598733 0.282301337171903 0.4390985450935856 0.16327921067347115 0.43909854509364155 0.16327921067353324
 0.28676069167598733 0.28230133717190303 -0.16495778186316354 -0.6088597585183805 0.43909854509365065 0.1632792106735447 0.4390985450937205 0.16327921067360016
 0.4390985450935854 0.16327921067347106 0.4390985450936508 0.16327921067354456 -0.14779071509180663 -0.6171445132454737 0.2695936249044062 0.29058609189890655
 0.43909854509364127 0.1632792106735331 0.43909854509372004 0.16327921067360002 0.269593624904406 0.2905860918989064 -0.14779071509162778 -0.6171445132453959
154000000.0 -0.16659513901216264 -0.6078022991902305 0.2877050957942524 0.28204690053720277 0.4394450216088429 0.16287769932670623 0.43944502160889926 0.1628776993267685
 0.28770509579425224 0.2820469005372026 -0.16659513901194395 -0.6078022991901487 0.4394450216089083 0.16287769932677976 0.4394450216089783 0.1628776993268352
 0.43944502160884275 0.16287769932670632 0.4394450216089084 0.16287769932677973 -0.14947664346348602 -0.6161253911346335 0.2705866002455698 0.29036999248159845
 0.439445021608899 0.1628776993267683 0.4394450216089782 0.16287769932683518 0.2705866002455697 0.29036999248159834 -0.14947664346330664 -0.6161253911345561
154500000.0 -0.16822170675627868 -0.606745777648529 0.2886443445041747 0.28179028750333074 0.4397886811259395 0.16247774507279233 0.4397886811259961 0.16247774507285442
 0.2886443445041748 0.2817902875033307 -0.16822170675605977 -0.6067457776484472 0.4397886811260052 0.16247774507286566 0.43978868112607544 0.16247774507292093
 0.4397886811259393 0.16247774507279242 0.43978868112600517 0.1624777450728658 -0.1511517782340016 -0.6151067456684297 0.2715744159818918 0.2901512555232247
 0.4397886811259959 0.16247774507285423 0.43978868112607505 0.16247774507292095 0.2715744159818917 0.2901512555232244 -0.15115177823382225 -0.6151067456683527
155000000.0 -0.16983756761732408 -0.6056902280649862 0.28957846256412006 0.2815315410965761 0.4401295525264893 0.1620793434843997 0.44012955252654606 0.16207934348446176
 0.28957846256411995 0.2815315410965757 -0.169837567617105 -0.6056902280649049 0.4401295525265551 0.16207934348447284 0.44012955252662567 0.1620793434845282
 0.44012955252648894 0.16207934348439962 0.4401295525265553 0.162079343484473 -0.15281619857315346 -0.6140886147632698 0.27255709351994356 0.28992992779485227
 0.44012955252654573 0.1620793434844614 0.4401295525266254 0.16207934348452815 0.27255709351994334 0.289929927794852 -0.15281619857297377 -0.6140886147631929
155500000.0 -0.17144280348684174 -0.604635683872789 0.2905074747937081 0.2812707037446958 0.4404676643464538 0.16168249006424204 0.44046766434651075 0.1616824900643039
 0.290507474793708 0.28127070374469565 -0.1714428034866225 -0.6046356838727074 0.4404676643465199 0.16168249006431532 0.4404676643465905 0.1616824900643705
 0.4404676643464536 0.16168249006424193 0.44046766434652 0.16168249006431523 -0.15446998308910853 -0.6130710355847941 0.27353465439596913 0.2897060554566938
 0.4404676643465104 0.16168249006430366 0.44046766434659024 0.16168249006437027 0.2735346543959689 0.2897060554566936 -0.15446998308892898 -0.6130710355847174
156000000.0 -0.1730374956294453 -0.603582177779314 0.2914314060678903 0.2810078172840023 0.44080304478066423 0.161287180247852 0.44080304478072135 0.1612871802479138
 0.29143140606789025 0.2810078172840023 -0.17303749562922577 -0.6035821777792327 0.4408030447807305 0.1612871802479253 0.44080304478080123 0.16128718024798036
 0.440803044780664 0.16128718024785194 0.44080304478073057 0.16128718024792515 -0.15611320983048274 -0.6120540445600157 0.27450712026892193 0.289479684064697
 0.440803044780721 0.16128718024791372 0.4408030447808008 0.1612871802479803 0.2745071202689217 0.2894796840646969 -0.1561132098303029 -0.612054044559939
156500000.0 -0.17462172468598255 -0.6025297417785643 0.29235028131118906 0.28074292296639536 0.44113572168728327 0.16089340940628177 0.44113572168734067 0.16089340940634358
 0.2923502813111889 0.2807429229663952 -0.17462172468576298 -0.6025297417784834 0.4411357216873499 0.16089340940635474 0.4411357216874208 0.16089340940640992
 0.44113572168728316 0.1608934094062817 0.4411357216873501 0.16089340940635488 -0.15774595628847363 -0.6110376773892774 0.2754745129136739 0.28925085857710126
 0.4411357216873404 0.16089340940634356 0.44113572168742066 0.16089340940640995 0.2754745129136738 0.28925085857710114 -0.1577459562882934 -0.6110376773892008
157000000.0 -0.1761955706767431 -0.601478407163404 0.2932641254920961 0.28047606146634135 0.44146572259220973 0.16050117284872947 0.44146572259226724 0.16050117284879145
 0.2932641254920961 0.2804760614663413 -0.17619557067652325 -0.6014784071633229 0.44146572259227657 0.1605011728488027 0.4414657225923476 0.1605011728488578
 0.44146572259220945 0.16050117284872936 0.4414657225922767 0.16050117284880258 -0.15936829939904848 -0.6100219690580296 0.27643685421439534 0.2890196233609598
 0.44146572259226696 0.1605011728487912 0.44146572259234745 0.16050117284885773 0.2764368542143952 0.28901962336095977 -0.15936829939886796 -0.610021969057953
157500000.0 -0.1777591130047024 -0.6004282045375968 0.2941729636176278 0.2802072728878016 0.44179307469342344 0.16011046582509678 0.4417930746934813 0.16011046582515862
 0.2941729636176277 0.28020727288780156 -0.17775911300448258 -0.600428204537516 0.4417930746934904 0.16011046582516986 0.4417930746935617 0.16011046582522484
 0.44179307469342327 0.16011046582509678 0.44179307469349055 0.16011046582516983 -0.1609803155451821 -0.6090069538484296 0.2773941661581013 0.2887860221986274
 0.44179307469348095 0.16011046582515845 0.4417930746935614 0.16011046582522476 0.27739416615810114 0.2887860221986272 -0.16098031554500158 -0.6090069538483535
158000000.0 -0.17931243045880546 -0.5993791638276537 0.2950768207280298 0.279936596771104 0.44211780486527374 0.1597212835284749 0.4421178048653316 0.15972128352853673
 0.29507682072802977 0.279936596771104 -0.17931243045858553 -0.599379163827573 0.442117804865341 0.15972128352854803 0.4421178048654124 0.15972128352860293
 0.44211780486527347 0.15972128352847495 0.4421178048653411 0.1597212835285479 -0.16258208055914322 -0.6079926653507672 0.2783464708283614 0.28855009829421074
 0.4421178048653315 0.15972128352853662 0.44211780486541213 0.15972128352860285 0.27834647082836134 0.28855009829421063 -0.16258208055896262 -0.6079926653506912
158500000.0 -0.18085560121728372 -0.5983313142944884 0.29597572189163296 0.27966407209976085 0.44243993966271095 0.15933362109756513 0.44243993966276907 0.15933362109762703
 0.2959757218916329 0.27966407209976074 -0.18085560121706365 -0.5983313142944082 0.4424399396627786 0.15933362109763805 0.4424399396628501 0.159333621097693
 0.4424399396627107 0.1593336210975651 0.4424399396627786 0.15933362109763796 -0.16417366972482703 -0.6069791364747167 0.27929379039916985 0.28831189427998183
 0.4424399396627688 0.1593336210976269 0.44243993966284983 0.159333621097693 0.27929379039916974 0.2883118942799818 -0.16417366972464595 -0.6069791364746405
159000000.0 -0.18238870285100572 -0.597284684544889 0.2968696921998526 0.27938973730723 0.4427595053254619 0.15894747361903167 0.4427595053255202 0.15894747361909334
 0.29686969219985254 0.2793897373072299 -0.18238870285078534 -0.597284684544809 0.44275950532552966 0.15894747361910455 0.44275950532560127 0.15894747361915934
 0.44275950532546166 0.15894747361903158 0.44275950532552966 0.15894747361910455 -0.16575515778013053 -0.6059663994604184 0.2802361471289713 0.2880714522227522
 0.44275950532551994 0.1589474736190933 0.4427595053256011 0.15894747361915942 0.2802361471289711 0.2880714522227522 -0.16575515777994934 -0.6059663994603425
159500000.0 -0.18391181232685846 -0.5962393025428001 0.2977587567623315 0.27911363028362235 0.4430765277821487 0.1585628361297922 0.44307652778220724 0.1585628361298539
 0.2977587567623314 0.2791136302836223 -0.1839118123266381 -0.5962393025427203 0.4430765277822166 0.15856283612986505 0.4430765277822885 0.15856283612991967
 0.44307652778214857 0.1585628361297923 0.4430765277822168 0.15856283612986502 -0.16732661891937373 -0.604954485889393 0.2811735633548406 0.28782881363020824
 0.44307652778220696 0.15856283612985367 0.4430765277822883 0.15856283612991962 0.2811735633548404 0.287828813630208 -0.16732661891919276 -0.6049544858893174
160000000.0 -0.18542500601115908 -0.5951951956204288 0.29864294070222014 0.27883578838234924 0.4433910326543542 0.15817970361924402 0.443391032654413 0.1581797036193056
 0.29864294070222014 0.2788357883823491 -0.18542500601093814 -0.595195195620349 0.4433910326544226 0.15817970361931682 0.44339103265449464 0.15817970361937145
 0.4433910326543541 0.15817970361924408 0.44339103265442265 0.15817970361931688 -0.16888812679575735 -0.6039434266952908 0.2821060614868124 0.2875840194572043
 0.4433910326544127 0.15817970361930542 0.4433910326544942 0.15817970361937145 0.2821060614868122 0.28758401945720413 -0.1688881267955762 -0.6039434266952155
160500000.0 -0.18692835967309035 -0.5941523904891676 0.29952226915159424 0.27855624842671595 0.44370304526063253 0.15779807103143126 0.4437030452606915 0.1577980710314928
 0.2995222691515942 0.27855624842671584 -0.18692835967286955 -0.5941523904890883 0.4437030452607011 0.15779807103150384 0.4437030452607734 0.1577980710315584
 0.4437030452606323 0.1577980710314312 0.44370304526070115 0.15779807103150392 -0.1704397545238601 -0.6029332521744754 0.2830336640023579 0.2873371101120167
 0.4437030452606912 0.15779807103149257 0.44370304526077314 0.15779807103155838 0.28303366400235774 0.28733711011201646 -0.17043975452367874 -0.6029332521744002
161000000.0 -0.18842194848816657 -0.5931109132503444 0.30039676724700415 0.278275046716456 0.4440125906204655 0.1574179332671505 0.4440125906205248 0.15741793326721207
 0.3003967672470041 0.27827504671645586 -0.18842194848794538 -0.5931109132502651 0.4440125906205344 0.1574179332672233 0.44401259062060683 0.15741793326727777
 0.4440125906204652 0.15741793326715042 0.44401259062053433 0.15741793326722325 -0.1719815746821745 -0.6019239919964485 0.283956393441006 0.2870881254625531
 0.44401259062052434 0.15741793326721187 0.44401259062060644 0.15741793326727765 0.28395639344100576 0.2870881254625529 -0.17198157468199282 -0.6019239919963735
161500000.0 -0.18990584704171787 -0.5920707894057957 0.3012664601251537 0.2779922190342079 0.44431969345816646 0.15703928518600124 0.44431969345822575 0.15703928518606283
 0.3012664601251536 0.2779922190342078 -0.18990584704149693 -0.5920707894057168 0.44431969345823535 0.15703928518607385 0.4443196934583078 0.15703928518612825
 0.44431969345816613 0.15703928518600122 0.4443196934582354 0.1570392851860737 -0.17351365931567406 -0.6009156752141155 0.2848742723991034 0.28683710484252034
 0.44431969345822536 0.15703928518606272 0.4443196934583074 0.1570392851861282 0.2848742723991032 0.2868371048425203 -0.1735136593154922 -0.6009156752140402
162000000.0 -0.19138012933240167 -0.5910320438682719 0.3021313729187066 0.27770780065193423 0.44462437820673145 0.1566621216083769 0.44462437820679085 0.15666212160843843
 0.3021313729187065 0.2777078006519341 -0.19138012933218018 -0.591032043868193 0.44462437820680073 0.1566621216084496 0.4446243782068733 0.15666212160850387
 0.4446243782067311 0.15666212160837695 0.44462437820680073 0.15666212160844956 -0.1750360799384171 -0.599908330273893 0.2857873235247158 0.2865840870575483
 0.4446243782067907 0.1566621216084384 0.444624378206873 0.15666212160850407 0.28578732352471564 0.2865840870575482 -0.175036079938235 -0.599908330273818
162500000.0 -0.1928448687757284 -0.5899947009716718 0.3029915307522163 0.277421826337282 0.4449266690116398 0.15628643731740396 0.44492666901169947 0.15628643731746542
 0.3029915307522162 0.2774218263372819 -0.19284486877550694 -0.5899947009715929 0.44492666901170913 0.15628643731747657 0.4449266690117819 0.15628643731753078
 0.4449266690116394 0.15628643731740396 0.4449266690117092 0.15628643731747646 -0.17654890753617927 -0.598901985025665 0.28669556951266084 0.2863291103912682
 0.4449266690116991 0.15628643731746533 0.4449266690117817 0.1562864373175308 0.2866955695126607 0.2863291103912681 -0.17654890753599717 -0.5989019850255901
163000000.0 -0.19430013820761255 -0.5889587844811125 0.3038469587381767 0.2771343303598837 0.4452265897346013 0.15591222706082453 0.4452265897346613 0.1559122270608859
 0.30384695873817663 0.2771343303598838 -0.19430013820739098 -0.588958784481034 0.445226589734671 0.15591222706089705 0.445226589734744 0.15591222706095134
 0.44522658973460116 0.15591222706082458 0.4452265897346712 0.15591222706089702 -0.17805221256911763 -0.5978966667325832 0.2875990330996753 0.2860722126113475
 0.44522658973466117 0.15591222706088587 0.4452265897347438 0.15591222706095123 0.2875990330996752 0.28607221261134735 -0.17805221256893514 -0.5978966667325086
163500000.0 -0.19574600988793536 -0.5879243176028368 0.30469768197319114 0.27684534649760084 0.4455241639572554 0.15553948555282926 0.44552416395731564 0.15553948555289063
 0.304697681973191 0.2768453464976008 -0.19574600988771387 -0.5879243176027583 0.4455241639573252 0.15553948555290162 0.4455241639573983 0.1555394855529558
 0.4455241639572553 0.15553948555282932 0.44552416395732525 0.1555394855529016 -0.17954606497446116 -0.5968924020807205 0.2884977370597105 0.28581343097547734
 0.44552416395731526 0.15553948555289038 0.44552416395739813 0.15553948555295558 0.2884977370597103 0.2858134309754772 -0.1795460649742787 -0.5968924020806462
164000000.0 -0.1971825555041274 -0.5868913229939576 0.3055437255342574 0.2765549080427068 0.44581941498481775 0.15516820747583782 0.44581941498487815 0.15516820747589907
 0.3055437255342573 0.2765549080427066 -0.19718255550390534 -0.5868913229938796 0.44581941498488803 0.15516820747591012 0.4458194149849613 0.1551682074759642
 0.4458194149848176 0.15516820747583765 0.4458194149848881 0.15516820747591006 -0.18103053416923034 -0.5958892171885739 0.28939170419935434 0.2855528022373158
 0.4458194149848778 0.1551682074758988 0.4458194149849611 0.15516820747596408 0.2893917041993542 0.28555280223731566 -0.18103053416904785 -0.5958892171884995
164500000.0 -0.19860984617476066 -0.5858598227720462 0.306385114475165 0.2762630478080119 0.44611236584968067 0.15479838748223035 0.4461123658497411 0.1547983874822916
 0.3063851144751649 0.2762630478080119 -0.19860984617453858 -0.5858598227719682 0.44611236584975106 0.15479838748230262 0.4461123658498245 0.1547983874823566
 0.4461123658496804 0.1547983874822304 0.44611236584975106 0.1547983874823025 -0.18250568905298012 -0.5948871376164235 0.29028095735337794 0.2852903626523822
 0.4461123658497409 0.1547983874822915 0.44611236584982417 0.15479838748235664 0.2902809573533778 0.2852903626523821 -0.18250568905279732 -0.5948871376163493
165000000.0 -0.20002795245315946 -0.5848298385245625 0.30722187382300203 0.2759697981329288 0.4464030393149613 0.15443002019603108 0.44640303931502195 0.15443002019609234
 0.307221873823002 0.2759697981329287 -0.20002795245293717 -0.5848298385244848 0.4464030393150319 0.1544300201961033 0.4464030393151055 0.1544300201961572
 0.44640303931496106 0.1544300201960311 0.44640303931503184 0.1544300201961033 -0.18397159801056595 -0.5938861883755476 0.291165519380402 0.2850261479839068
 0.4464030393150217 0.15443002019609217 0.4464030393151052 0.15443002019615729 0.29116551938040186 0.2850261479839067 -0.1839715980103829 -0.5938861883754737
165500000.0 -0.20143694433101772 -0.5838013913181338 0.3080540285747721 0.2756751908894773 0.44669145787800485 0.1540631002145437 0.44669145787806586 0.15406310021460473
 0.30805402857477204 0.27567519088947723 -0.20143694433079523 -0.5838013913180563 0.4466914578780758 0.15406310021461572 0.44669145787814957 0.1540631002146696
 0.44669145787800474 0.15406310021454364 0.44669145787807585 0.15406310021461567 -0.18542832891493466 -0.5928863939372943 0.2920454131586828 0.2847601935086306
 0.4466914578780657 0.1540631002146045 0.44669145787814935 0.15406310021466946 0.2920454131586827 0.28476019350863035 -0.1854283289147515 -0.5928863939372206
166000000.0 -0.20283689124202822 -0.582774501707682 0.3088816036941138 0.27537925748823183 0.44697764377383925 0.15369762210994112 0.44697764377390037 0.15369762211000212
 0.30888160369411377 0.2753792574882319 -0.20283689124180573 -0.5827745017076044 0.44697764377391036 0.15369762211001334 0.4469776437739842 0.1536976221100671
 0.44697764377383903 0.15369762210994123 0.4469776437739104 0.15369762211001337 -0.1868759491299341 -0.5918877782420152 0.29292066158201346 0.2844925340225582
 0.4469776437739 0.1536976221100021 0.4469776437739839 0.15369762211006702 0.2929206615820133 0.2844925340225581 -0.18687594912975106 -0.5918877782419415
166500000.0 -0.20422786206552213 -0.5817491897453987 0.3097046241081236 0.2750820288842081 0.44726161897858097 0.15333358043081255 0.4472616189786422 0.1533335804308736
 0.3097046241081236 0.27508202888420796 -0.2042278620652993 -0.5817491897453215 0.4472616189786524 0.15333358043088455 0.44726161897872635 0.15333358043093825
 0.44726161897858063 0.15333358043081255 0.4472616189786524 0.15333358043088452 -0.18831452551314395 -0.5908903647078614 0.2937912875557391 0.28422320384666366
 0.447261618978642 0.15333358043087342 0.4472616189787261 0.15333358043093823 0.2937912875557391 0.2842232038466635 -0.18831452551296046 -0.5908903647077879
167000000.0 -0.2056099251301136 -0.5807254749895804 0.31052311470428007 0.2747835355826899 0.4475434052127981 0.15297096970366314 0.4475434052128596 0.15297096970372406
 0.31052311470428 0.2747835355826899 -0.20560992512989062 -0.5807254749895031 0.4475434052128697 0.15297096970373525 0.44754340521294406 0.15297096970378876
 0.44754340521279795 0.1529709697036632 0.4475434052128698 0.15297096970373522 -0.18974412441872193 -0.5898941762394422 0.294657313992882 0.28395223683254506
 0.44754340521285935 0.15297096970372395 0.4475434052129437 0.1529709697037887 0.29465731399288175 0.28395223683254484 -0.18974412441853838 -0.589894176239369
167500000.0 -0.20698314821735292 -0.5797033765133112 0.31133710032746476 0.27448380764499924 0.44782302394482565 0.15260978443437545 0.4478230239448872 0.15260978443443632
 0.31133710032746464 0.2744838076449991 -0.20698314821713 -0.5797033765132343 0.4478230239448973 0.15260978443444725 0.4478230239449715 0.15260978443450082
 0.4478230239448253 0.1526097844343753 0.44782302394489726 0.15260978443444712 -0.19116481170027164 -0.5888992352363525 0.2955187638103768 0.2836796663680331
 0.4478230239448868 0.15260978443443607 0.4478230239449713 0.1526097844345007 0.2955187638103767 0.283679666368033 -0.19116481170008795 -0.5888992352362793
168000000.0 -0.20834759856538476 -0.5786829129130119 0.312146605777079 0.27418287469420205 0.44810049639403393 0.15225001910962493 0.4481004963940958 0.15225001910968575
 0.312146605777079 0.27418287469420194 -0.20834759856516158 -0.5786829129129352 0.4481004963941059 0.15225001910969677 0.4481004963941804 0.15225001910975028
 0.44810049639403393 0.15225001910962496 0.44810049639410615 0.15225001910969677 -0.19257665271372207 -0.5879055636015651 0.29637565992540976 0.2834055253827483
 0.4481004963940956 0.15225001910968572 0.44810049639418026 0.1522500191097503 0.2963756599254095 0.28340552538274816 -0.19257665271353813 -0.5879055636014919
168500000.0 -0.20970334287260822 -0.5776641023168408 0.3129516558042543 0.27388076592076166 0.44837584353405785 0.15189166819826072 0.44837584353411986 0.15189166819832153
 0.31295165580425427 0.2738807659207616 -0.209703342872385 -0.5776641023167642 0.44837584353412996 0.15189166819833247 0.4483758435342045 0.15189166819838593
 0.4483758435340577 0.1518916681982608 0.44837584353413 0.15189166819833247 -0.1939797123202238 -0.5869131827496968 0.2972280252518634 0.28312984635361077
 0.4483758435341196 0.15189166819832145 0.44837584353420434 0.1518916681983859 0.2972280252518633 0.28312984635361066 -0.1939797123200398 -0.5869131827496238
169000000.0 -0.2110504473013443 -0.5766469623929644 0.31375227510915416 0.27357751008812653 0.4486490860959757 0.15153472615264102 0.44864908609603776 0.15153472615270186
 0.31375227510915404 0.27357751008812636 -0.21105044730112107 -0.576646962392888 0.4486490860960479 0.15153472615271274 0.44864908609612275 0.15153472615276614
 0.44864908609597554 0.15153472615264107 0.4486490860960482 0.15153472615271277 -0.19537405488905912 -0.5859221136151438 0.29807588269686236 0.28285266131029885
 0.44864908609603765 0.15153472615270172 0.44864908609612264 0.15153472615276617 0.29807588269686225 0.2828526613102988 -0.19537405488887483 -0.585922113615071
169500000.0 -0.21238897748150187 -0.5756315103576873 0.3145484883383636 0.27327313553826316 0.4489202445714495 0.1511791874099353 0.448920244571512 0.15117918740999609
 0.3145484883383635 0.27327313553826305 -0.2123889774812785 -0.5756315103576112 0.448920244571522 0.15117918741000685 0.44892024457159707 0.15117918741006026
 0.4489202445714493 0.15117918740993525 0.44892024457152224 0.15117918741000688 -0.19675974430056226 -0.5849323766600913 0.29891925515741735 0.2825740018406602
 0.44892024457151175 0.15117918740999586 0.44892024457159696 0.15117918741006017 0.29891925515741713 0.28257400184066017 -0.19675974430037768 -0.5849323766600187
170000000.0 -0.21371899851424608 -0.5746177629834506 0.3153403200823663 0.27296767019712853 0.4491893392158201 0.15082504639338545 0.4491893392158827 0.1508250463934461
 0.3153403200823662 0.2729676701971284 -0.2137189985140223 -0.5746177629833745 0.4491893392158929 0.15082504639345706 0.44918933921596804 0.15082504639351016
 0.44918933921581994 0.15082504639338537 0.44918933921589294 0.15082504639345695 -0.1981368439490534 -0.5839439918824004 0.2997581655171671 0.28229389909607105
 0.4491893392158825 0.15082504639344585 0.44918933921596776 0.15082504639351005 0.29975816551716705 0.2822938990960709 -0.19813684394886902 -0.583943991882328
170500000.0 -0.2150405749756672 -0.5736057366067 0.3161277948731069 0.2726611415800842 0.4494563900511601 0.15047229751353328 0.44945639005122284 0.15047229751359392
 0.31612779487310677 0.2726611415800841 -0.2150405749754432 -0.5736057366066243 0.44945639005123317 0.15047229751360477 0.44945639005130844 0.15047229751365793
 0.44945639005115984 0.15047229751353325 0.4494563900512332 0.1504722975136048 -0.19950541674578218 -0.5829569788233698 0.30059263664321517 0.2820123837967468
 0.4494563900512226 0.15047229751359378 0.4494563900513082 0.15047229751365795 0.30059263664321506 0.2820123837967467 -0.19950541674559738 -0.5829569788232974
171000000.0 -0.2163537709204485 -0.5725954471356223 0.316910937181635 0.2723535767972525 0.4497214168692865 0.15012093516941094 0.44972141686934947 0.15012093516947148
 0.31691093718163493 0.2723535767972524 -0.21635377092022462 -0.5725954471355467 0.44972141686935974 0.15012093516948227 0.4497214168694352 0.15012093516953534
 0.44972141686928624 0.15012093516941102 0.4497214168693598 0.15012093516948238 -0.20086552512187913 -0.5819713565753791 0.3014226913830589 0.2817294862370027
 0.4497214168693492 0.15012093516947145 0.44972141686943484 0.15012093516953542 0.3014226913830587 0.28172948623700256 -0.20086552512169428 -0.5819713565753071
171500000.0 -0.2176586498855317 -0.571586910057755 0.3176897714158304 0.2720450025588139 0.4499844392347304 0.14977095374969768 0.44998443923479364 0.14977095374975824
 0.3176897714158302 0.27204500255881386 -0.21765864988530798 -0.5715869100576795 0.44998443923480386 0.14977095374976898 0.44998443923487946 0.149770953749822
 0.4499844392347302 0.14977095374969776 0.4499844392348039 0.14977095374976898 -0.20221723103131814 -0.5809871437894129 0.3022483525616096 0.28144523629046503
 0.4499844392347933 0.1497709537497582 0.4499844392348792 0.14977095374982202 0.30224835256160937 0.28144523629046486 -0.20221723103113287 -0.5809871437893408
172000000.0 -0.2189552748937819 -0.5705801404474735 0.3184643219182065 0.271735445180246 0.4502454764876671 0.14942234763384196 0.4502454764877305 0.14942234763390255
 0.3184643219182063 0.2717354451802459 -0.21895527489355787 -0.5705801404473984 0.4502454764877407 0.14942234763391324 0.4502454764878165 0.1494223476339663
 0.45024547648766683 0.14942234763384193 0.4502454764877407 0.14942234763391324 -0.20356059595388254 -0.580004358682465 0.30306964297830014 0.28115966341523035
 0.45024547648773017 0.14942234763390244 0.4502454764878162 0.1494223476339663 0.3030696429783001 0.2811596634152303 -0.20356059595369713 -0.5800043586823931
172500000.0 -0.22024370845764568 -0.5695751529733523 0.3192346129637921 0.27142493058750605 0.4505045477468061 0.1490751111931522 0.45050454774686943 0.14907511119321268
 0.3192346129637919 0.271424930587506 -0.2202437084574214 -0.5695751529732772 0.45050454774687976 0.1490751111932235 0.45050454774695564 0.1490751111932764
 0.4505045477468059 0.14907511119315228 0.4505045477468799 0.14907511119322342 -0.20489568089814147 -0.5790230190448312 0.3038865854042811 0.280872796658978
 0.4505045477468691 0.1490751111932126 0.45050454774695536 0.1490751111932764 0.30388658540428093 0.28087279665897796 -0.20489568089795612 -0.5790230190447593
173000000.0 -0.2215240125828085 -0.568571961905403 0.3200006687580853 0.2711134843221548 0.45076167191224054 0.1487292387918543 0.45076167191230426 0.1487292387919148
 0.32000066875808514 0.2711134843221547 -0.22152401258258408 -0.5685719619053282 0.45076167191231453 0.14872923879192546 0.45076167191239064 0.14872923879197839
 0.45076167191224026 0.14872923879185432 0.45076167191231464 0.14872923879192537 -0.2062225464044291 -0.5780431422472848 0.30469920257969924 0.2805846646640296
 0.45076167191230376 0.14872923879191455 0.45076167191239036 0.14872923879197822 0.30469920257969896 0.28058466466402937 -0.20622254640424367 -0.5780431422472131
173500000.0 -0.22279624877184595 -0.5675705811221984 0.3207625134350836 0.2708011315464237 0.45101686766825994 0.14838472478811862 0.45101686766832366 0.14838472478817893
 0.32076251343508355 0.2708011315464237 -0.22279624877162102 -0.5675705811221234 0.4510168676683344 0.1483847247881898 0.4510168676684103 0.1483847247882425
 0.4510168676682597 0.1483847247881185 0.45101686766833426 0.14838472478818956 -0.20754125254782937 -0.5770647452481422 0.3055075172110604 0.28029529567236033
 0.45101686766832333 0.14838472478817874 0.45101686766841 0.1483847247882424 0.3055075172110603 0.2802952956723603 -0.20754125254764383 -0.5770647452480706
174000000.0 -0.2240604780278675 -0.5665710241178734 0.32152017105538266 0.27048789704822485 0.4512701534861211 0.14804156353505657 0.4512701534861851 0.1480415635351168
 0.32152017105538244 0.2704878970482247 -0.22406047802764284 -0.5665710241177988 0.45127015348619537 0.14804156353512762 0.45127015348627175 0.14804156353518014
 0.45127015348612076 0.14804156353505654 0.4512701534861954 0.14804156353512749 -0.20885185894116437 -0.5760878446002162 0.30631155196867255 0.28000471753056055
 0.45127015348618454 0.14804156353511666 0.45127015348627136 0.1480415635351802 0.30631155196867227 0.2800047175305605 -0.20885185894097866 -0.5760878446001448
174500000.0 -0.22531676085815752 -0.5655733040090145 0.32227366560434617 0.27017380524610496 0.4515215476267838 0.14769974938168795 0.451521547626848 0.1476997493817482
 0.3222736656043461 0.2701738052461049 -0.2253167608579327 -0.5655733040089399 0.45152154762685853 0.14769974938175884 0.4515215476269349 0.14769974938181157
 0.45152154762678365 0.1476997493816878 0.4515215476268586 0.14769974938175873 -0.21015442473798557 -0.5751124564576634 0.3071113294841675 0.27971295769474686
 0.45152154762684776 0.1476997493817481 0.45152154762693475 0.14769974938181155 0.30711132948416736 0.2797129576947469 -0.21015442473779938 -0.575112456457592
175000000.0 -0.2265651572778044 -0.5645774335414314 0.32302302099034375 0.2698588801941424 0.45177106814360846 0.1473592766738787 0.451771068143673 0.1473592766739389
 0.3230230209903435 0.2698588801941423 -0.22656515727757964 -0.5645774335413571 0.45177106814368323 0.1473592766739496 0.4517710681437599 0.14735927667400214
 0.45177106814360835 0.14735927667387894 0.45177106814368345 0.14735927667394974 -0.2114490086355678 -0.5741385965827194 0.3079068723481004 0.2794200432354237
 0.4517710681436726 0.14735927667393858 0.45177106814375967 0.14735927667400198 0.3079068723481001 0.2794200432354235 -0.21144900863538213 -0.5741385965826487
175500000.0 -0.2278057268133273 -0.5635834250968201 0.3237682610430527 0.2695431455867879 0.45201873288501504 0.14702013975525138 0.45201873288507954 0.14702013975531147
 0.3237682610430526 0.26954314558678777 -0.22780572681310202 -0.563583425096746 0.45201873288509026 0.1470201397553222 0.45201873288516686 0.1470201397553746
 0.452018732885015 0.14702013975525138 0.45201873288509037 0.14702013975532213 -0.2127356688779051 -0.573166280352335 0.30869820310762386 0.27912600084229566
 0.45201873288507927 0.14702013975531128 0.45201873288516664 0.14702013975537453 0.30869820310762364 0.2791260008422956 -0.2127356688777192 -0.573166280352264
176000000.0 -0.2290385285062887 -0.5625912906993139 0.32450940951182755 0.26922662476365106 0.4522645594971081 0.14668233296806787 0.4522645594971728 0.146682332968128
 0.3245094095118275 0.26922662476365083 -0.22903852850606332 -0.5625912906992402 0.4522645594971834 0.1466823329681385 0.45226455949726024 0.1466823329681909
 0.4522645594971079 0.14668233296806787 0.45226455949718364 0.14668233296813862 -0.2140144632587042 -0.5721955227647009 0.30948534426423646 0.27883085682903097
 0.45226455949717265 0.14668233296812772 0.45226455949726013 0.14668233296819086 0.3094853442642363 0.27883085682903086 -0.21401446325851792 -0.5721955227646301
176500000.0 -0.23026362091690306 -0.5616010420219256 0.32524649006413 0.2689093407142295 0.45250856542626405 0.1463458506540854 0.45250856542632895 0.14634585065414524
 0.32524649006412987 0.26890934071422945 -0.23026362091667754 -0.5616010420218517 0.45250856542633955 0.146345850654156 0.4525085654264164 0.14634585065420824
 0.4525085654262638 0.14634585065408529 0.4525085654263396 0.14634585065415592 -0.2152854491243826 -0.5712263384456768 0.31026831827160267 0.2785346371379738
 0.4525085654263286 0.14634585065414518 0.4525085654264162 0.14634585065420827 0.31026831827160256 0.27853463713797366 -0.21528544912419614 -0.5712263384456061
177000000.0 -0.2314810621276324 -0.5606126903928833 0.32597952628402055 0.2685913160825858 0.45275076792168334 0.14601068715538715 0.4527507679217484 0.14601068715544713
 0.32597952628402027 0.2685913160825856 -0.23148106212740685 -0.5606126903928099 0.4527507679217589 0.14601068715545767 0.45275076792183605 0.14601068715551
 0.452750767921683 0.14601068715538718 0.4527507679217591 0.14601068715545776 -0.21654868337706207 -0.5702587416551148 0.3110471475334429 0.2782373673448102
 0.4527507679217481 0.14601068715544682 0.45275076792183594 0.14601068715550988 0.3110471475334428 0.27823736734480997 -0.21654868337687533 -0.5702587416550445
177500000.0 -0.2326909097467733 -0.5596262468018621 0.3267085416707108 0.26827257317196607 0.45299118403790845 0.14567683681518714 0.4529911840379739 0.14567683681524704
 0.3267085416707107 0.268272573171966 -0.23269090974654794 -0.5596262468017887 0.4529911840379842 0.14567683681525767 0.45299118403806155 0.14567683681530982
 0.4529911840379082 0.14567683681518714 0.4529911840379843 0.14567683681525753 -0.21780422247756273 -0.5692927462930857 0.311821854401493 0.27793907266318263
 0.45299118403797345 0.14567683681524687 0.4529911840380612 0.14567683681530974 0.3118218544014929 0.2779390726631824 -0.2178042224773759 -0.5692927462930153
178000000.0 -0.23389322091203218 -0.5586417219061098 0.3274335596371736 0.2679531339493692 0.4532298306373064 0.14534429397861073 0.4532298306373717 0.14534429397867052
 0.3274335596371734 0.26795313394936904 -0.23389322091180656 -0.5586417219060366 0.4532298306373824 0.14534429397868107 0.4532298306374596 0.14534429397873305
 0.45322983063730593 0.14534429397861057 0.4532298306373824 0.14534429397868098 -0.21905212244839514 -0.5683283659060053 0.31259246117352957 0.27763977794925754
 0.4532298306373712 0.14534429397867027 0.45322983063745925 0.14534429397873305 0.3125924611735295 0.2776397779492574 -0.21905212244820846 -0.568328365905935
178500000.0 -0.2350880522940899 -0.5576591260364738 0.3281546035088093 0.2676330200500569 0.4534667243925168 0.1450130529934499 0.4534667243925825 0.14501305299350953
 0.32815460350880926 0.2676330200500568 -0.23508805229386384 -0.5576591260364009 0.4534667243925932 0.14501305299352021 0.45346672439267066 0.14501305299357223
 0.4534667243925167 0.14501305299344977 0.45346672439259333 0.14501305299352024 -0.22029243887674912 -0.5673656136926671 0.31335899009146156 0.27733950770624327
 0.45346672439258223 0.14501305299350953 0.4534667243926705 0.14501305299357223 0.31335899009146145 0.2773395077062432 -0.2202924388765621 -0.5673656136925971
179000000.0 -0.236275460100154 -0.5566784692033254 0.3288716965221681 0.2673122527820146 0.4537018817888692 0.14468310821089758 0.4537018817889349 0.14468310821095728
 0.3288716965221679 0.2673122527820145 -0.23627546009992795 -0.5566784692032523 0.45370188178894566 0.14468310821096794 0.4537018817890232 0.1446831082110199
 0.4537018817888691 0.14468310821089753 0.45370188178894577 0.14468310821096783 -0.22152522691747864 -0.5664045025101776 0.314121463339486 0.2770382860888599
 0.45370188178893456 0.14468310821095715 0.45370188178902304 0.14468310821101973 0.3141214633394857 0.27703828608885983 -0.2215252269172916 -0.5664045025101077
179500000.0 -0.2374555000774992 -0.5556997611023866 0.3295848618237263 0.2669908531303577 0.4539353191267626 0.14435445398625738 0.45393531912682855 0.14435445398631702
 0.3295848618237263 0.26699085313035775 -0.23745550007727312 -0.5556997611023136 0.4539353191268393 0.1443544539863277 0.4539353191269171 0.14435445398637953
 0.45393531912676266 0.14435445398625754 0.45393531912683943 0.14435445398632765 -0.2227505412960845 -0.5654450448797975 0.31487990304230457 0.2767361369077621
 0.4539353191268285 0.14435445398631697 0.4539353191269169 0.14435445398637956 0.31487990304230457 0.27673613690776205 -0.22275054129589722 -0.5654450448797279
180000000.0 -0.23862822751699528 -0.5547230111204595 0.33029412246871404 0.2666688417616849 0.4541670525240168 0.1440270846796316 0.4541670525240828 0.1440270846796912
 0.3302941224687139 0.26666884176168487 -0.23862822751676913 -0.554723011120387 0.4541670525240936 0.1440270846797018 0.45416705252417144 0.14402708467975353
 0.4541670525240166 0.1440270846796317 0.45416705252409373 0.14402708467970182 -0.22396843631169172 -0.5644872529926936 0.3156343312634035 0.27643308363391234
 0.45416705252408246 0.1440270846796912 0.45416705252417117 0.14402708467975356 0.3156343312634033 0.2764330836339122 -0.22396843631150443 -0.564487252992624
180500000.0 -0.2397936972566209 -0.553748228341062 0.3309995014199957 0.26634623902837884 0.45439709791818833 0.14370099465658678 0.45439709791825456 0.14370099465664624
 0.33099950141999573 0.26634623902837873 -0.23979369725639435 -0.5537482283409894 0.4543970979182655 0.1437009946566569 0.4543970979183434 0.14370099465670855
 0.4543970979181883 0.14370099465658687 0.4543970979182656 0.14370099465665692 -0.22517896584002262 -0.5635311387155968 0.3163847700033906 0.2761291494029069
 0.4543970979182543 0.14370099465664607 0.45439709791834315 0.1437009946567084 0.31638477000339044 0.2761291494029067 -0.22517896583983546 -0.5635311387155275
181000000.0 -0.2409519636849636 -0.5527754215499651 0.3317010215469998 0.2660230649728571 0.45462547106885753 0.1433761782888005 0.454625471068924 0.14337617828885996
 0.3317010215469997 0.26602306497285694 -0.24095196368473712 -0.5527754215498929 0.4546254710689349 0.14337617828887053 0.4546254710690129 0.14337617828892202
 0.45462547106885737 0.14337617828880053 0.45462547106893497 0.14337617828887045 -0.22638218333636292 -0.5625767135963717 0.3171312411983921 0.2758243570192567
 0.4546254710689237 0.1433761782888597 0.45462547106901274 0.14337617828892202 0.3171312411983919 0.2758243570192566 -0.2263821833361755 -0.5625767135963026
181500000.0 -0.24210308074470765 -0.5518045992406444 0.3323987056246959 0.2656993393317693 0.4548521875598813 0.14305262995468485 0.45485218755994783 0.14305262995474435
 0.3323987056246958 0.2656993393317692 -0.24210308074448095 -0.5518045992405722 0.4548521875599587 0.1430526299547549 0.454852187560037 0.14305262995480642
 0.45485218755988105 0.1430526299546849 0.45485218755995876 0.1430526299547548 -0.22757814183852354 -0.5616239888694997 0.31787376671850476 0.2755187289606177
 0.4548521875599476 0.14305262995474416 0.45485218756003676 0.1430526299548063 0.3178737667185046 0.2755187289606176 -0.2275781418383357 -0.5616239888694305
182000000.0 -0.24324710193610488 -0.5508357696196337 0.3330925763326215 0.26537508154014533 0.4550772628016171 0.1427303440399927 0.4550772628016837 0.142730344040052
 0.33309257633262146 0.2653750815401453 -0.24324710193587826 -0.5508357696195617 0.4550772628016948 0.1427303440400625 0.455077262801773 0.14273034404011398
 0.45507726280161676 0.14273034403999263 0.45507726280169464 0.14273034404006243 -0.2287668939697952 -0.5606729754614718 0.31861236836630474 0.27521228738197656
 0.45507726280168354 0.14273034404005192 0.45507726280177285 0.14273034404011398 0.31861236836630474 0.27521228738197656 -0.2287668939696074 -0.5606729754614028
182500000.0 -0.24438408032043338 -0.5498689406117943 0.3337826562539526 0.26505031073549074 0.45530071203311556 0.14240931493840106 0.45530071203318223 0.14240931493846032
 0.3337826562539526 0.2650503107354907 -0.24438408032020664 -0.5498689406117225 0.45530071203319333 0.14240931493847087 0.45530071203327166 0.14240931493852219
 0.4553007120331153 0.1424093149384011 0.45530071203319344 0.14240931493847084 -0.22994849194189707 -0.5597236839960996 0.3193470678754094 0.2749050541197892
 0.45530071203318206 0.1424093149384602 0.4553007120332715 0.1424093149385222 0.3193470678754093 0.27490505411978916 -0.22994849194170927 -0.5597236839960307
183000000.0 -0.2455140685234377 -0.548904119865494 0.33446896787462077 0.26472504576183503 0.4555225503242837 0.14208953705207983 0.4555225503243507 0.14208953705213906
 0.3344689678746206 0.2647250457618349 -0.24551406852321114 -0.5489041198654225 0.45552255032436156 0.14208953705214958 0.4555225503244401 0.14208953705220084
 0.4555225503242834 0.1420895370520799 0.45552255032436173 0.14208953705214958 -0.2311229875579162 -0.5587761247997395 0.32007788690909167 0.27459705069607365
 0.45552255032435035 0.142089537052139 0.45552255032443995 0.14208953705220087 0.3200778869090915 0.2745970506960736 -0.2311229875577281 -0.5587761247996706
183500000.0 -0.24663711873875815 -0.5479413147576997 0.3351515335824723 0.2643993051737267 0.45574279257801775 0.14177100479223795 0.4557427925780848 0.1417710047922971
 0.3351515335824721 0.2643993051737266 -0.24663711873853114 -0.5479413147576282 0.45574279257809597 0.14177100479230775 0.45574279257817446 0.1417710047923589
 0.4557427925780176 0.141771004792238 0.45574279257809597 0.1417710047923076 -0.2322904322152402 -0.5578303079064355 0.32080484705894713 0.27428829832245555
 0.45574279257808464 0.1417710047922971 0.45574279257817435 0.14177100479235888 0.320804847058947 0.2742882983224556 -0.23229043221505197 -0.5578303079063668
184000000.0 -0.24775328273133812 -0.5469805323989853 0.3358303756664721 0.26407310724018196 0.45596145353230744 0.14145371257965406 0.4559614535323749 0.14145371257971326
 0.3358303756664719 0.26407310724018185 -0.24775328273111127 -0.5469805323989138 0.4559614535323857 0.14145371257972364 0.4559614535324646 0.14145371257977482
 0.4559614535323073 0.14145371257965408 0.4559614535323859 0.14145371257972356 -0.2334508769084831 -0.5568862430629794 0.32152796984361004 0.2739788179041694
 0.45596145353237455 0.14145371257971304 0.4559614535324644 0.14145371257977468 0.3215279698436098 0.2739788179041693 -0.2334508769082947 -0.556886243062911
184500000.0 -0.24886261184082187 -0.546021779638455 0.3365055163159475 0.2637464699485838 0.4561785477623114 0.1411376548451887 0.4561785477623789 0.14113765484524782
 0.33650551631594744 0.2637464699485838 -0.2488626118405946 -0.5460217796383838 0.4561785477623901 0.14113765484525842 0.4561785477624691 0.1411376548453095
 0.4561785477623113 0.14113765484518884 0.4561785477623902 0.14113765484525836 -0.23460437223240002 -0.5559439397338916 0.3222472767075184 0.2736686300440138
 0.4561785477623787 0.1411376548452477 0.45617854776246897 0.1411376548453094 0.3222472767075182 0.2736686300440136 -0.2346043722322114 -0.5559439397338234
185000000.0 -0.24996515698493085 -0.5450650630685852 0.33717697761987137 0.2634194110085323 0.4563940896824038 0.1408228260302807 0.4563940896824715 0.14082282603033966
 0.33717697761987137 0.26341941100853217 -0.2499651569847032 -0.5450650630685142 0.45639408968248274 0.14082282603035012 0.4563940896825617 0.14082282603040117
 0.4563940896824035 0.14082282603028057 0.4563940896824827 0.14082282603035007 -0.23575096838479395 -0.5550034071063217 0.32296278901972736 0.2733577550462618
 0.4563940896824711 0.14082282603033952 0.45639408968256145 0.1408228260304011 0.3229627890197272 0.27335775504626175 -0.23575096838460533 -0.5550034071062534
185500000.0 -0.2510609686628256 -0.5441103890299842 0.33784478156618747 0.26309194785564655 0.4566080935481929 0.14050922058742407 0.4566080935482608 0.14050922058748305
 0.33784478156618747 0.2630919478556465 -0.2510609686625981 -0.5441103890299133 0.456608093548272 0.14050922058749352 0.45660809354835125 0.14050922058754445
 0.4566080935481927 0.14050922058742413 0.45660809354827187 0.1405092205874935 -0.23689071516941446 -0.5540646540948709 0.3236745280727691 0.2730462129205267
 0.45660809354826054 0.14050922058748283 0.45660809354835097 0.14050922058754434 0.32367452807276903 0.27304621292052655 -0.23689071516922572 -0.5540646540948031
186000000.0 -0.25215009695845103 -0.5431577636160724 0.3385089500411716 0.2627640976553206 0.4568205734585136 0.14019683298063204 0.4568205734585815 0.14019683298069088
 0.3385089500411715 0.2627640976553205 -0.25215009695822327 -0.5431577636160017 0.4568205734585927 0.14019683298070137 0.45682057345867216 0.14019683298075222
 0.45682057345851335 0.14019683298063204 0.4568205734585928 0.1401968329807013 -0.23802366199884478 -0.5531276893463408 0.324382515081558 0.27273402338558217
 0.45682057345858124 0.14019683298069066 0.45682057345867194 0.1401968329807522 0.3243825150815578 0.27273402338558206 -0.23802366199865577 -0.553127689346273
186500000.0 -0.25323259154386235 -0.5422071926776845 0.3391695048288299 0.2624358773064318 0.4570315433573899 0.1398856576858838 0.45703154335745805 0.13988565768594258
 0.33916950482882974 0.26243587730643164 -0.2532325915436344 -0.5422071926776139 0.45703154335746926 0.13988565768595299 0.45703154335754864 0.1398856576860038
 0.4570315433573893 0.13988565768588357 0.45703154335746915 0.1398856576859528 -0.23914985789737905 -0.5521925212444009 0.3250867711823392 0.2724212058731412
 0.4570315433574576 0.13988565768594247 0.45703154335754836 0.13988565768600383 0.3250867711823391 0.2724212058731413 -0.23914985789718984 -0.5521925212443329
187000000.0 -0.25430850168253527 -0.5412586818275938 0.33982646761033514 0.2621073034450008 0.45724101703597364 0.13957568919155447 0.457241017036042 0.13957568919161334
 0.339826467610335 0.2621073034450008 -0.25430850168230745 -0.5412586818275232 0.45724101703605313 0.13957568919162372 0.45724101703613274 0.13957568919167454
 0.45724101703597325 0.13957568919155447 0.4572410170360531 0.13957568919162358 -0.24026935150389106 -0.551259157914187 0.32578731743168327 0.2721077795315872
 0.4572410170360416 0.13957568919161328 0.4572410170361324 0.13957568919167443 0.3257873174316832 0.2721077795315871 -0.24026935150370166 -0.5512591579141192
187500000.0 -0.25537787623265934 -0.5403122364449602 0.3404798599634962 0.2617783924478099 0.4574490081344547 0.13926692199883456 0.4574490081345232 0.1392669219988932
 0.34047985996349633 0.2617783924478098 -0.25537787623243124 -0.5403122364448899 0.45744900813453443 0.13926692199890364 0.45744900813461414 0.13926692199895416
 0.45744900813445455 0.1392669219988345 0.4574490081345344 0.1392669219989035 -0.241382191074689 -0.5503276072268232 0.32648417480551883 0.27179376322966603
 0.45744900813452294 0.13926692199889296 0.45744900813461375 0.13926692199895416 0.32648417480551867 0.271793763229666 -0.24138219107449987 -0.5503276072267557
188000000.0 -0.25644076365040985 -0.5393678616797047 0.34112970336226384 0.26144916043596933 0.4576555301439462 0.1389593506221281 0.45765553014401483 0.1389593506221867
 0.34112970336226367 0.2614491604359693 -0.25644076365018215 -0.5393678616796348 0.457655530144026 0.138959350622197 0.4576555301441057 0.1389593506222476
 0.45765553014394594 0.1389593506221282 0.457655530144026 0.13895935062219697 -0.24248842448636387 -0.5493978768038733 0.3271773641982106 0.27147917556013135
 0.45765553014401467 0.13895935062218648 0.4576555301441056 0.13895935062224743 0.32717736419821053 0.27147917556013107 -0.24248842448617475 -0.5493978768038063
188500000.0 -0.2574972119932061 -0.5384255624568095 0.3417760191762662 0.2611196232784448 0.4578605964083428 0.13865296958944365 0.45786059640841154 0.13865296958950218
 0.3417760191762663 0.26111962327844485 -0.2574972119929781 -0.5384255624567397 0.4578605964084229 0.13865296958951254 0.45786059640850285 0.13865296958956308
 0.45786059640834265 0.1386529695894437 0.45786059640842286 0.1386529695895126 -0.24358809923862101 -0.5484699740217207 0.32786690642167376 0.27116403484334944
 0.4578605964084115 0.1386529695895021 0.4578605964085026 0.13865296958956305 0.3278669064216737 0.2711640348433494 -0.24358809923843147 -0.5484699740216535
189000000.0 -0.25854726892294755 -0.5374853434805449 0.34241882867038176 0.26078979659553553 0.4580642201261558 0.1383477734427666 0.4580642201262245 0.13834777344282512
 0.3424188286703817 0.26078979659553553 -0.25854726892271956 -0.537485343480475 0.45806422012623593 0.13834777344283541 0.4580642201263158 0.13834777344288585
 0.45806422012615555 0.13834777344276666 0.4580642201262358 0.1383477734428354 -0.24468126245710392 -0.5475439060158768 0.3285528222045305 0.27084835913086086
 0.4580642201262244 0.13834777344282514 0.45806422012631565 0.13834777344288593 0.32855282220453047 0.2708483591308609 -0.24468126245691432 -0.5475439060158096
189500000.0 -0.2595909817092343 -0.536547209238626 0.3430581530043388 0.26045969576231126 0.4582664143523203 0.13804375673842084 0.4582664143523894 0.13804375673847916
 0.3430581530043386 0.2604596957623111 -0.2595909817090061 -0.5365472092385564 0.4582664143524008 0.13804375673848945 0.45826641435248083 0.13804375673853972
 0.4582664143523201 0.1380437567384207 0.45826641435240084 0.13804375673848937 -0.2457679608962056 -0.5466196796852227 0.32923513219130285 0.27053216620890125
 0.4582664143523891 0.13804375673847902 0.45826641435248067 0.1380437567385397 0.3292351321913027 0.2705321662089011 -0.24576796089601596 -0.5466196796851558
190000000.0 -0.260628397232567 -0.5356111640063012 0.34369401323234905 0.26012933591200166 0.45846719199998126 0.1377409140474138 0.4584671920000504 0.13774091404747216
 0.3436940132323491 0.2601293359120017 -0.26062839723233827 -0.5356111640062315 0.458467192000062 0.13774091404748262 0.45846719200014213 0.13774091404753283
 0.45846719199998104 0.13774091404741393 0.4584671920000617 0.13774091404748257 -0.2468482409418674 -0.5456973016961825 0.32991385694164216 0.2702154736018765
 0.4584671920000502 0.13774091404747218 0.4584671920001418 0.13774091404753286 0.3299138569416421 0.2702154736018764 -0.24684824094167768 -0.5456973016961156
190500000.0 -0.2616595619875284 -0.5346772118503668 0.3443264303027692 0.25979873193934766 0.45866656584225196 0.1374392399557751 0.4586665658423213 0.13743923995583335
 0.3443264303027691 0.25979873193934744 -0.2616595619873001 -0.5346772118502976 0.4586665658423326 0.1374392399558435 0.45866656584241294 0.13743923995589374
 0.4586665658422517 0.13743923995577506 0.4586665658423327 0.13743923995584348 -0.24792214861436437 -0.5447767784868291 0.3305890169295975 0.2698982985758031
 0.4586665658423209 0.13743923995583318 0.4586665658424128 0.13743923995589374 0.3305890169295974 0.269898298575803 -0.24792214861417455 -0.5447767784867624
191000000.0 -0.2626845220859484 -0.53374535663312 0.3449554250577917 0.25946789850390356 0.45886454851395037 0.13713872906487434 0.45886454851401987 0.1371387290649326
 0.3449554250577916 0.25946789850390345 -0.2626845220857197 -0.5337453566330507 0.45886454851403136 0.13713872906494293 0.45886454851411174 0.137138729064993
 0.4588645485139501 0.13713872906487437 0.4588645485140314 0.1371387290649429 -0.24898972957108037 -0.5438581162709245 0.3312606325429162 0.26958065814170157
 0.45886454851401953 0.1371387290649324 0.45886454851411157 0.13713872906499297 0.33126063254291616 0.2695806581417014 -0.24898972957089052 -0.543858116270858
191500000.0 -0.26370332326004464 -0.532815602016239 0.3455810182331642 0.2591368500333029 0.45906115251331225 0.13683937599173546 0.4590611525133819 0.13683937599179358
 0.3455810182331641 0.2591368500333028 -0.2637033232598161 -0.53281560201617 0.4590611525133934 0.13683937599180382 0.4590611525134739 0.13683937599185386
 0.459061152513312 0.13683937599173535 0.45906115251339324 0.13683937599180374 -0.25005102910926913 -0.5429413210418954 0.33192872408238083 0.2692625690589522
 0.45906115251338153 0.13683937599179338 0.4590611525134736 0.13683937599185383 0.3319287240823807 0.26926256905895213 -0.250051029109079 -0.5429413210418288
192000000.0 -0.26471601086555036 -0.5318879514646038 0.3462032304579354 0.2588056007264767 0.4592563902036792 0.13654117536933208 0.459256390203749 0.13654117536939012
 0.3462032304579354 0.25880560072647646 -0.2647160108653214 -0.5318879514645349 0.45925639020376047 0.13654117536940027 0.45925639020384124 0.13654117536945032
 0.45925639020367903 0.136541175369332 0.45925639020376063 0.13654117536940036 -0.25110609216880037 -0.5420263985767451 0.33259331176117807 0.26894404783861114
 0.45925639020374875 0.13654117536938995 0.45925639020384107 0.13654117536945024 0.332593311761178 0.2689440478386111 -0.25110609216861024 -0.5420263985766789
192500000.0 -0.26572262988481704 -0.5309624082500473 0.3468220822542285 0.2584741645568341 0.45945027381516584 0.1362441218468759 0.4594502738152357 0.136244121846934
 0.3468220822542283 0.258474164556834 -0.2657226298845882 -0.5309624082499785 0.4594502738152472 0.1362441218469443 0.4594502738153281 0.13624412184699417
 0.4594502738151656 0.1362441218468759 0.45945027381524733 0.13624412184694412 -0.2521549633348985 -0.5411133544399035 0.3332544157043023 0.26862511074668344
 0.45945027381523545 0.13624412184693385 0.4594502738153279 0.13624412184699417 0.3332544157043022 0.26862511074668344 -0.25215496333470805 -0.5411133544398372
193000000.0 -0.26672322492990275 -0.5300389754550454 0.3474375940370396 0.2581425552754001 0.4596428154463029 0.135948210090093 0.459642815446373 0.13594821009015107
 0.3474375940370395 0.2581425552753999 -0.266723224929674 -0.530038975454977 0.4596428154463845 0.13594821009016106 0.45964281544646524 0.13594821009021088
 0.4596428154463026 0.13594821009009292 0.45964281544638447 0.13594821009016098 -0.25319768684086 -0.5402021939870129 0.33391205594798923 0.2683057738073607
 0.4596428154463727 0.1359482100901508 0.4596428154464653 0.13594821009021082 0.3339120559479893 0.26830577380736065 -0.2531976868406697 -0.5402021939869468
193500000.0 -0.2677178402456369 -0.5291176559763451 0.3480497861140614 0.2578107864139128 0.45983402706565896 0.13565343478148761 0.4598340270657291 0.13565343478154557
 0.34804978611406134 0.25781078641391275 -0.2677178402454078 -0.5291176559762766 0.4598340270657407 0.13565343478155578 0.45983402706582166 0.13565343478160552
 0.4598340270656586 0.13565343478148753 0.45983402706574067 0.1356534347815557 -0.25423430657076457 -0.5392929223686554 0.3345662524391815 0.2679860528062163
 0.45983402706572896 0.13565343478154535 0.45983402706582155 0.1356534347816054 0.33456625243918137 0.26798605280621624 -0.25423430657057394 -0.5392929223685895
194000000.0 -0.2687065197126676 -0.5281984525285298 0.34865867868553096 0.2574788712878799 0.4600239205134392 0.13535979062059736 0.4600239205135096 0.13535979062065515
 0.34865867868553085 0.25747887128787983 -0.26870651971243825 -0.5281984525284615 0.4600239205135212 0.13535979062066555 0.46002392051360236 0.1353597906207151
 0.4600239205134391 0.1353597906205973 0.46002392051352137 0.13535979062066536 -0.2552648660621668 -0.5383855445340199 0.3352170250350228 0.2676659632933632
 0.4600239205135094 0.13535979062065492 0.4600239205136021 0.135359790620715 0.33521702503502265 0.267665963293363 -0.2552648660619763 -0.5383855445339542
194500000.0 -0.2696893068504885 -0.527281367647525 0.34926429184410185 0.2571468229995969 0.4602125075030643 0.13506727232423751 0.4602125075031349 0.1350672723242953
 0.3492642918441017 0.25714682299959685 -0.2696893068502595 -0.5272813676474569 0.46021250750314635 0.1350672723243055 0.46021250750322773 0.13506727232435514
 0.46021250750306414 0.13506727232423751 0.4602125075031464 0.13506727232430538 -0.2562894085087787 -0.5374800652345085 0.3358643935023843 0.26734552058657374
 0.4602125075031347 0.13506727232429522 0.4602125075032275 0.135067272324355 0.33586439350238423 0.2673455205865736 -0.25628940850858783 -0.5374800652344428
195000000.0 -0.2706662448204479 -0.5263664036940444 0.34986664557473796 0.25681465444112384 0.4603997996227254 0.13477587462673454 0.46039979962279615 0.13477587462679225
 0.34986664557473796 0.2568146544411239 -0.27066624482021834 -0.5263664036939764 0.4603997996228078 0.13477587462680254 0.4603997996228892 0.13477587462685203
 0.46039979962272526 0.13477587462673452 0.46039979962280775 0.13477587462680235 -0.25730797676313416 -0.5365764890272874 0.3365083775174169 0.2670247397743602
 0.4603997996227959 0.13477587462679208 0.4603997996228888 0.1347758746268519 0.33650837751741686 0.26702473977436014 -0.2573079767629433 -0.5365764890272218
195500000.0 -0.27163737642873254 -0.5254535628569778 0.3504657597546316 0.25648237829722575 0.46058580833692114 0.13448559228015158 0.46058580833699186 0.13448559228020918
 0.35046575975463157 0.25648237829722564 -0.2716373764285031 -0.52545356285691 0.46058580833700363 0.13448559228021936 0.46058580833708496 0.13448559228026877
 0.4605858083369209 0.13448559228015164 0.4605858083370035 0.13448559228021933 -0.25832061333924156 -0.5356748202787779 0.33714899666513315 0.2667036357190191
 0.46058580833699153 0.134485592280209 0.4605858083370847 0.13448559228026868 0.337148996665133 0.266703635719019 -0.2583206133390509 -0.5356748202787126
196000000.0 -0.2726027441293402 -0.5245428471567221 0.35106165415314006 0.25615000704827073 0.4607705449879703 0.13419642005450202 0.4607705449880413 0.13419642005455967
 0.35106165415314006 0.2561500070482707 -0.2726027441291105 -0.5245428471566542 0.460770544988053 0.1341964200545698 0.4607705449881347 0.13419642005461918
 0.46077054498797015 0.13419642005450197 0.4607705449880531 0.13419642005456972 -0.2593273604152221 -0.5347750631680943 0.3377862704390145 0.2663822230596362
 0.46077054498804115 0.1341964200545595 0.4607705449881344 0.13419642005461913 0.3377862704390144 0.2663822230596362 -0.259327360415031 -0.5347750631680289
196500000.0 -0.27356239002702293 -0.5236342584484532 0.3516543484317464 0.25581755297309455 0.4609540207975083 0.13390835273795676 0.4609540207975796 0.1339083527380143
 0.35165434843174626 0.2558175529730945 -0.2735623900267934 -0.5236342584483856 0.4609540207975909 0.13390835273802443 0.46095402079767284 0.13390835273807375
 0.4609540207975083 0.13390835273795687 0.46095402079759124 0.13390835273802443 -0.2603282598359314 -0.5338772216904225 0.33842021824064755 0.26606051621505744
 0.4609540207975793 0.13390835273801413 0.4609540207976726 0.1339083527380736 0.3384202182406473 0.26606051621505716 -0.2603282598357403 -0.5338772216903576
197000000.0 -0.27451635588021805 -0.5227277984253464 0.35224386214403874 0.2554850281518237 0.46113624686795973 0.13362138513703967 0.46113624686803084 0.13362138513709707
 0.35224386214403863 0.2554850281518236 -0.2745163558799882 -0.522727798425279 0.46113624686804267 0.1336213851371072 0.4611362468681243 0.13362138513715646
 0.46113624686795945 0.13362138513703964 0.4611362468680428 0.13362138513710717 -0.26132335311556987 -0.5329812996603486 0.33905085937938323 0.2657385293868194
 0.4611362468680306 0.133621385137097 0.46113624686812416 0.13362138513715652 0.3390508593793831 0.2657385293868194 -0.2613233531153788 -0.5329812996602835
197500000.0 -0.27546468310395367 -0.5218234686217386 0.3528302147357086 0.25515244446866386 0.4613172341839923 0.13333551207681674 0.46131723418406356 0.13333551207687422
 0.35283021473570847 0.2551524444686638 -0.27546468310372363 -0.5218234686216713 0.4613172341840754 0.13333551207688435 0.4613172341841573 0.1333355120769336
 0.46131723418399206 0.13333551207681665 0.46131723418407544 0.1333355120768842 -0.2623126814402757 -0.5320873007151296 0.33967821307202295 0.2654162765620482
 0.4613172341840633 0.13333551207687414 0.46131723418415715 0.13333551207693356 0.3396782130720229 0.2654162765620482 -0.26231268144008424 -0.5320873007150644
198000000.0 -0.27640741277273795 -0.5209212704162384 0.35341342554457145 0.2548198136146495 0.461496993613953 0.13305072840107476 0.46149699361402463 0.13305072840113213
 0.3534134255445713 0.25481981361464945 -0.2764074127725082 -0.5209212704161711 0.4614969936140361 0.13305072840114213 0.4614969936141182 0.13305072840119136
 0.4614969936139528 0.1330507284010748 0.46149699361403634 0.13305072840114215 -0.2632962856707026 -0.5311952283179135 0.3403022984425285 0.26509377151631824
 0.46149699361402435 0.13305072840113205 0.461496993614118 0.1330507284011913 0.3403022984425283 0.2650937715163182 -0.2632962856705111 -0.5311952283178487
198500000.0 -0.27734458562342656 -0.520021205034783 0.35399351380060146 0.2544871470903592 0.46167553591128196 0.1327670289724932 0.46167553591135374 0.13276702897255038
 0.35399351380060134 0.2544871470903591 -0.2773445856231966 -0.520021205034716 0.46167553591136545 0.13276702897256046 0.4616755359114475 0.13276702897260945
 0.46167553591128185 0.13276702897249323 0.46167553591136556 0.1327670289725605 -0.2642742063445872 -0.5303050857609085 0.3409231345217546 0.26477102781647827
 0.46167553591135346 0.13276702897255027 0.4616755359114474 0.13276702897260942 0.3409231345217544 0.2647710278164781 -0.2642742063443957 -0.5303050857608439
199000000.0 -0.278276242058069 -0.5191232735536433 0.35457049862598816 0.2541544562085936 0.46185287171590983 0.13248440867280734 0.46185287171598155 0.13248440867286454
 0.35457049862598805 0.2541544562085935 -0.2782762420578387 -0.5191232735535763 0.46185287171599343 0.13248440867287453 0.46185287171607575 0.1324844086729235
 0.46185287171590955 0.13248440867280747 0.46185287171599354 0.1324844086728747 -0.265246483679295 -0.5294168761684969 0.34154074024720654 0.2644480588234409
 0.4618528717159814 0.13248440867286443 0.4618528717160755 0.13248440867292358 0.34154074024720643 0.26444805882344075 -0.2652464836791033 -0.5294168761684325
199500000.0 -0.27920242214673774 -0.5182274769023772 0.35514439903520784 0.2538217520970173 0.46202901155563414 0.13220286240296317 0.462029011555706 0.13220286240302026
 0.3551443990352079 0.25382175209701724 -0.27920242214650737 -0.5182274769023105 0.46202901155571796 0.13220286240303034 0.4620290115558003 0.13220286240307907
 0.4620290115556339 0.1322028624029631 0.46202901155571796 0.13220286240303028 -0.2662131575743557 -0.528530602500304 0.34215513446281853 0.2641248776949376
 0.46202901155570575 0.13220286240301998 0.46202901155579984 0.13220286240307896 0.3421551344628183 0.26412487769493737 -0.26621315757416436 -0.5285306025002396
200000000.0 -0.28012316563033457 -0.517333815866733 0.3557152339351138 0.2534890457007689 0.4622039658474795 0.13192238508326648 0.4622039658475515 0.13192238508332338
 0.3557152339351137 0.25348904570076874 -0.2801231656301042 -0.5173338158666665 0.4622039658475635 0.1319223850833335 0.46220396584764584 0.1319223850833823
 0.46220396584747936 0.13192238508326645 0.4622039658475636 0.13192238508333354 -0.2671742676139826 -0.5276462675542117 0.3427663359187543 0.263801497388241
 0.46220396584755113 0.13192238508332327 0.4622039658476455 0.13192238508338228 0.34276633591875405 0.2638014973882408 -0.267174267613791 -0.5276462675541475
