! Created with skrf 2.0.1 (http://scikit-rf.org).
# Hz S RI R 50.0 
!freq ReS11 ImS11 ReS12 ImS12 ReS13 ImS13
! ReS14 ImS14
! ReS21 ImS21 ReS22 ImS22 ReS23 ImS23
! ReS24 ImS24
! ReS31 ImS31 ReS32 ImS32 ReS33 ImS33
! ReS34 ImS34
! ReS41 ImS41 ReS42 ImS42 ReS43 ImS43
! ReS44 ImS44
!
500000.0 0.9999325758788619 -0.009680742740988959 -1.0121818701529312e-05 0.0009249249784617261 3.877296991981468e-05 0.0043779088812638325 3.877296991981258e-05 0.004377908881264004
 -1.0121818701529303e-05 0.0009249249784617265 0.999932575878862 -0.009680742740986792 3.877296991981135e-05 0.004377908881263984 3.877296991981111e-05 0.004377908881264333
 3.877296991981465e-05 0.00437790888126383 3.8772969919811365e-05 0.004377908881263985 0.9999348833280767 -0.009460696429278213 -1.2429267916128306e-05 0.0007048786667509687
 3.877296991981255e-05 0.004377908881264002 3.877296991981107e-05 0.0043779088812643295 -1.2429267916128299e-05 0.0007048786667509683 0.9999348833280771 -0.009460696429276542
1000000.0 0.9997322850956917 -0.019358550791883495 -4.064622503235143e-05 0.0018509728622674486 0.00015418056467032153 0.008753788964808454 0.0001541805646703131 0.008753788964808799
 -4.06462250323514e-05 0.0018509728622674484 0.9997322850956917 -0.019358550791879158 0.0001541805646703082 0.008753788964808757 0.0001541805646703071 0.008753788964809453
 0.00015418056467032148 0.008753788964808452 0.00015418056467030822 0.00875378896480876 0.9997414693786861 -0.018918565893814316 -4.983050802665102e-05 0.0014109879641982532
 0.000154180564670313 0.008753788964808792 0.00015418056467030703 0.00875378896480945 -4.9830508026650996e-05 0.0014109879641982519 0.9997414693786865 -0.01891856589381098
1500000.0 0.9993992626839651 -0.02903051966794414 -9.149563745065075e-05 0.00277925986876851 0.0003461164767428279 0.013125629899588464 0.00034611647674280885 0.013125629899588976
 -9.149563745065066e-05 0.00277925986876851 0.999399262683965 -0.02903051966793763 0.00034611647674279774 0.013125629899588915 0.00034611647674279524 0.01312562989958996
 0.00034611647674282766 0.013125629899588456 0.00034611647674279785 0.013125629899588919 0.9994198887163304 -0.028370810622853772 -0.00011212166981581568 0.002119550823678114
 0.0003461164767428085 0.013125629899588964 0.0003461164767427951 0.013125629899589951 -0.00011212166981581563 0.002119550823678113 0.9994198887163305 -0.028370810622848765
2000000.0 0.9989337328190775 -0.03869375208679103 -0.0001625412219595383 0.0037108970391230203 0.0006144042014409844 0.01749142752383487 0.0006144042014409503 0.017491427523835555
 -0.00016254122195953817 0.00371089703912302 0.998933732819078 -0.038693752086782385 0.000614404201440931 0.01749142752383548 0.0006144042014409267 0.01749142752383687
 0.0006144042014409839 0.01749142752383486 0.0006144042014409311 0.01749142752383548 0.9989703580955236 -0.0378146398548648 -0.00019916649840573812 0.0028317848071967556
 0.0006144042014409499 0.01749142752383554 0.000614404201440926 0.017491427523836856 -0.00019916649840573804 0.0028317848071967534 0.9989703580955238 -0.03781463985485811
2500000.0 0.9983360083730718 -0.04834536152528688 -0.0002536032569755907 0.004646987683909945 0.0009587974419518682 0.021849186920689545 0.0009587974419518155 0.021849186920690402
 -0.00025360325697559047 0.004646987683909946 0.9983360083730722 -0.04834536152527606 0.000958797441951785 0.02184918692069031 0.0009587974419517782 0.021849186920692047
 0.0009587974419518675 0.02184918692068953 0.0009587974419517852 0.021849186920690315 0.9983931800245348 -0.0472472732988287 -0.0003107749084387049 0.0035488994574517283
 0.0009587974419518148 0.021849186920690388 0.0009587974419517775 0.021849186920692033 -0.00031077490843870473 0.0035488994574517257 0.9983931800245354 -0.04724727329882038
3000000.0 0.9976064902944923 -0.057982475744982956 -0.0003644516412849992 0.0055886248566073835 0.0013789806733963505 0.026196925444189077 0.0013789806733962742 0.026196925444190104
 -0.00036445164128499875 0.005588624856607384 0.9976064902944931 -0.05798247574496998 0.0013789806733962308 0.026196925444189997 0.0013789806733962202 0.026196925444192075
 0.0013789806733963497 0.026196925444189067 0.0013789806733962313 0.026196925444190004 0.9976887421578152 -0.05666594456455099 -0.0004467035046079029 0.00427209367617539
 0.0013789806733962731 0.026196925444190087 0.00137898067339622 0.026196925444192068 -0.0004467035046079026 0.004272093676175389 0.9976887421578156 -0.056665944564540986
3500000.0 0.9967456668158642 -0.0676022402759445 -0.000494806542768819 0.006536888863945304 0.001874569863452088 0.030532675706001107 0.001874569863451985 0.030532675706002307
 -0.0004948065427688186 0.0065368888639453036 0.9967456668158654 -0.06760224027592941 0.0018745698634519265 0.030532675706002186 0.0018745698634519122 0.03053267570600461
 0.0018745698634520871 0.030532675706001083 0.001874569863451927 0.030532675706002193 0.9968575165195884 -0.0660679045519602 -0.0006066562464927562 0.005002553139960953
 0.0018745698634519841 0.030532675706002294 0.0018745698634519122 0.030532675706004608 -0.0006066562464927564 0.0050025531399609515 0.9968575165195891 -0.06606790455194853
4000000.0 0.9957541124919757 -0.07720182184899169 -0.000644339184946271 0.007492844821933238 0.002445113346485267 0.03485448851353094 0.002445113346485132 0.03485448851353232
 -0.0006443391849462703 0.007492844821933239 0.9957541124919769 -0.07720182184897442 0.002445113346485056 0.03485448851353218 0.0024451133464850378 0.03485448851353496
 0.002445113346485266 0.03485448851353092 0.002445113346485056 0.03485448851353218 0.9959000585617445 -0.07545042478957856 -0.000790285254715456 0.005741447762520078
 0.00244511334648513 0.034854488513532296 0.002445113346485036 0.03485448851353493 -0.0007902852547154559 0.005741447762520073 0.9959000585617453 -0.07545042478956522
4500000.0 0.9946324870727913 -0.0867784117666622 -0.0008126727677730868 0.00845754026610437 0.003090092847490844 0.039160435750280845 0.003090092847490675 0.03916043575028241
 -0.0008126727677730864 0.008457540266104369 0.9946324870727925 -0.08677841176664279 0.003090092847490577 0.039160435750282246 0.0030900928474905556 0.03916043575028538
 0.0030900928474908427 0.039160435750280824 0.003090092847490578 0.03916043575028225 0.994817006059834 -0.08481080071261822 -0.0009971917548163224 0.006489929212060346
 0.0030900928474906727 0.03916043575028238 0.003090092847490554 0.03916043575028536 -0.000997191754816322 0.006489929212060343 0.9948170060598354 -0.08481080071260329
5000000.0 0.9933815342154846 -0.09632922920352302 -0.0009993835185446935 0.009432002824211957 0.003808924651529824 0.043448613189657696 0.0038089246515296145 0.04344861318965943
 -0.0009993835185446924 0.009432002824211957 0.9933815342154865 -0.0963292292035015 0.0038089246515294944 0.04344861318965925 0.0038089246515294693 0.04344861318966275
 0.003808924651529821 0.04344861318965766 0.0038089246515294957 0.043448613189659264 0.9936090778515914 -0.09414635487147407 -0.0012269271546516117 0.0072491284921629325
 0.0038089246515296115 0.043448613189659396 0.003808924651529466 0.04344861318966271 -0.0012269271546516108 0.00724912849216293 0.9936090778515928 -0.09414635487145749
5500000.0 0.9920020800406555 -0.10585152442682337 -0.001204001868195401 0.01041723795926389 0.004600960913769766 0.04771714323378209 0.0046009609137695135 0.04771714323378401
 -0.0012040018681954005 0.010417237959263888 0.9920020800406577 -0.10585152442679972 0.0046009609137693695 0.04771714323378382 0.004600960913769338 0.047717143233787666
 0.004600960913769763 0.04771714323378207 0.004600960913769372 0.04771714323378385 0.9922770724230119 -0.10345444006174775 -0.0014789942505520214 0.008020153594188232
 0.004600960913769513 0.04771714323378399 0.0046009609137693365 0.04771714323378765 -0.0014789942505520205 0.008020153594188227 0.9922770724230137 -0.10345444006172952
6000000.0 0.9904950315383872 -0.11534258192889209 -0.0014260137477584388 0.01141422679038999 0.0054654911046852755 0.051964177569253645 0.005465491104684977 0.05196417756925574
 -0.0014260137477584368 0.01141422679038999 0.9904950315383901 -0.11534258192886636 0.005465491104684805 0.05196417756925554 0.005465491104684768 0.05196417756925973
 0.005465491104685272 0.05196417756925361 0.005465491104684807 0.05196417756925555 0.9908218663475764 -0.11273244236734524 -0.001752848556947271 0.008804087228843018
 0.005465491104684973 0.0519641775692557 0.0054654911046847655 0.05196417756925971 -0.00175284855694727 0.008804087228843018 0.9908218663475782 -0.11273244236732537
6500000.0 0.9888613748303368 -0.12479972346313346 -0.0016648619992607723 0.01242392399860732 0.006401743584461612 0.05618789973226586 0.006401743584461261 0.05618789973226816
 -0.0016648619992607713 0.012423923998607318 0.9888613748303401 -0.12479972346310562 0.006401743584461063 0.05618789973226796 0.006401743584461023 0.05618789973227253
 0.006401743584461608 0.05618789973226583 0.006401743584461063 0.05618789973226796 0.9892444125847412 -0.12197778410863629 -0.0020478997536648898 0.009601984644110018
 0.006401743584461257 0.056187899732268114 0.006401743584461017 0.056187899732272464 -0.0020478997536648893 0.00960198464411001 0.9892444125847433 -0.12197778410861478
7000000.0 0.9871021732945335 -0.1342203109759597 -0.0019199478948743263 0.013447255824084394 0.007408887300170136 0.06038652757594065 0.007408887300169734 0.060386527575943136
 -0.001919947894874324 0.013447255824084396 0.9871021732945371 -0.13422031097592982 0.007408887300169503 0.060386527575942914 0.0074088873001694555 0.060386527575947806
 0.00740888730017013 0.06038652757594061 0.007408887300169503 0.06038652757594291 0.9875457386443115 -0.13118792668814838 -0.0023635132446527722 0.010414871536273018
 0.0074088873001697305 0.0603865275759431 0.007408887300169453 0.060386527575947785 -0.002363513244652772 0.010414871536273013 0.9875457386443145 -0.13118792668812534
7500000.0 0.9852185655600301 -0.14360174942752194 -0.0021906327577338324 0.014485118161010675 0.008486033598851505 0.06455831563325884 0.008486033598851047 0.0645583156332615
 -0.0021906327577338324 0.014485118161010672 0.9852185655600343 -0.14360174942748996 0.008486033598850784 0.0645583156332613 0.00848603359885073 0.06455831563326656
 0.008486033598851504 0.06455831563325883 0.008486033598850787 0.06455831563326131 0.9857269446237542 -0.14036037332678333 -0.0026990118214578066 0.011243742060271946
 0.008486033598851042 0.06455831563326146 0.008486033598850726 0.06455831563326653 -0.0026990118214578044 0.01124374206027194 0.985726944623757 -0.14036037332675863
8000000.0 0.9832117633789554 -0.15294148949464711 -0.002476239677463455 0.015538374755655183 0.00963223814925356 0.06870155736949941 0.009632238149253038 0.06870155736950227
 -0.002476239677463453 0.015538374755655187 0.9832117633789599 -0.15294148949461306 0.009632238149252738 0.06870155736950204 0.009632238149252681 0.06870155736950766
 0.009632238149253555 0.06870155736949937 0.009632238149252742 0.06870155736950202 0.9837892011259112 -0.14949267168408803 -0.00305367742441895 0.012089556945095918
 0.00963223814925303 0.06870155736950222 0.009632238149252672 0.0687015573695076 -0.003053677424418949 0.012089556945095909 0.9837892011259144 -0.1494926716840617
8500000.0 0.9810830493838743 -0.16223703014996388 -0.002776055313131238 0.016607855512653955 0.010846502964627788 0.07281458731865861 0.010846502964627202 0.07281458731866167
 -0.0027760553131312374 0.016607855512653955 0.9810830493838795 -0.1622370301499278 0.010846502964626864 0.07281458731866142 0.010846502964626805 0.07281458731866743
 0.010846502964627781 0.07281458731865857 0.010846502964626867 0.07281458731866144 0.981733747064948 -0.15858241635668335 -0.0034267529942046777 0.01295324171937324
 0.010846502964627198 0.07281458731866164 0.010846502964626796 0.07281458731866737 -0.0034267529942046773 0.012953241719373234 0.9817337470649519 -0.1585824163566555
9000000.0 0.9788337747386877 -0.1714859211117931 -0.003089331776073771 0.017694354914001474 0.012127778518692222 0.07689578309889968 0.01212777851869157 0.07689578309890292
 -0.0030893317760737676 0.01769435491400147 0.978833774738694 -0.17148592111175506 0.0121277785186912 0.07689578309890271 0.01212777851869113 0.07689578309890904
 0.012127778518692215 0.07689578309889963 0.012127778518691205 0.07689578309890274 0.979561887368657 -0.16762725124954053 -0.003817444406042672 0.013835685051748757
 0.012127778518691562 0.07689578309890288 0.012127778518691127 0.07689578309890903 -0.0038174444060426697 0.013835685051748751 0.979561887368661 -0.1676272512495111
9500000.0 0.9764653566915612 -0.1806857651599896 -0.003415288584804002 0.018798630554644202 0.01347496594662068 0.08094356730267678 0.013474965946619958 0.08094356730268025
 -0.0034152885848039998 0.018798630554644202 0.976465356691568 -0.18068576515994955 0.013474965946619543 0.08094356730268 0.013474965946619474 0.08094356730268674
 0.013474965946620673 0.08094356730267674 0.01347496594661955 0.08094356730268003 0.9772749905855129 -0.1766248718154015 -0.004224922478755409 0.014737737210055942
 0.01347496594661995 0.0809435673026802 0.013474965946619469 0.08094356730268669 -0.004224922478755407 0.014737737210055932 0.9772749905855177 -0.1766248718153705
10000000.0 0.9739792760385938 -0.1898342203135439 -0.0037531146840338752 0.0199214017979853 0.014886919322719353 0.08495640925778357 0.014886919322718564 0.08495640925778726
 -0.003753114684033873 0.019921401797985298 0.9739792760386009 -0.18983422031350178 0.014886919322718106 0.08495640925778701 0.014886919322718033 0.0849564092577941
 0.014886919322719344 0.08495640925778354 0.014886919322718113 0.08495640925778704 0.9748744864050891 -0.18557302715825655 -0.004648325050529183 0.015660208642697772
 0.014886919322718555 0.0849564092577872 0.01488691932271802 0.08495640925779405 -0.004648325050529182 0.01566020864269776 0.9748744864050944 -0.18557302715822402
10500000.0 0.9713770745071048 -0.1989290018663813 -0.004101970519709886 0.02106334855401575 0.016362448006301527 0.08893282665618726 0.01636244800630066 0.08893282665619114
 -0.004101970519709882 0.02106334855401575 0.9713770745071134 -0.19892900186633736 0.01636244800630017 0.08893282665619093 0.01636244800630009 0.08893282665619838
 0.01636244800630152 0.08893282665618722 0.016362448006300177 0.08893282665619098 0.9723618631006016 -0.19446952199741652 -0.005086759113206308 0.016603868685050715
 0.016362448006300653 0.0889328266561911 0.01636244800630008 0.08893282665619834 -0.005086759113206309 0.016603868685050708 0.9723618631006071 -0.19446952199738238
11000000.0 0.9686603520675329 -0.20796788427842933 -0.004460990161874081 0.02222511018219118 0.01790031904716965 0.09287138704812377 0.017900319047168708 0.09287138704812789
 -0.00446099016187408 0.02222511018219118 0.9686603520675414 -0.20796788427838328 0.01790031904716816 0.09287138704812764 0.017900319047168083 0.0928713870481355
 0.01790031904716964 0.09287138704812371 0.017900319047168167 0.09287138704812765 0.9697386649024594 -0.20331221848934286 -0.00553930299680051 0.017569444393104497
 0.017900319047168697 0.09287138704812783 0.01790031904716807 0.09287138704813541 -0.005539302996800506 0.01756944439310449 0.969738664902466 -0.20331221848930728
11500000.0 0.9658307641830015 -0.21694870291965376 -0.004829283467124476 0.02340728452057977 0.019499259642060545 0.0967707091995419 0.01949925964205953 0.09677070919954625
 -0.004829283467124474 0.023407284520579767 0.9658307641830111 -0.21694870291960586 0.01949925964205894 0.096770709199546 0.01949925964205886 0.09677070919955423
 0.019499259642060535 0.09677070919954185 0.019499259642058942 0.09677070919954604 0.9670064893117701 -0.21209903790502513 -0.006005008595893266 0.018557619505950987
 0.019499259642059515 0.09677070919954617 0.01949925964205885 0.09677070919955418 -0.006005008595893264 0.018557619505950973 0.9670064893117771 -0.21209903790498807
12000000.0 0.9628900190056473 -0.22586935566539368 -0.005205938272456481 0.02461042704221953 0.021157959633403566 0.10062946431159221 0.02115795963340246 0.10062946431159675
 -0.005205938272456475 0.024610427042219527 0.9628900190056577 -0.22586935566534383 0.021157959633401818 0.10062946431159653 0.021157959633401734 0.10062946431160509
 0.021157959633403552 0.10062946431159217 0.021157959633401825 0.10062946431159656 0.9641669843627643 -0.22082796216131662 -0.006482903629573102 0.019569033538142246
 0.02115795963340244 0.10062946431159667 0.02115795963340172 0.10062946431160504 -0.006482903629573096 0.019569033538142242 0.9641669843627714 -0.22082796216127795
12500000.0 0.9598398745287562 -0.23472780434193893 -0.005590022612319144 0.02583505013904593 0.0228750740417802 0.10444637710145183 0.022875074041779006 0.10444637710145659
 -0.00559002261231914 0.025835050139045922 0.9598398745287675 -0.23472780434188717 0.02287507404177832 0.10444637710145639 0.022875074041778232 0.10444637710146533
 0.022875074041780182 0.10444637710145177 0.022875074041778326 0.10444637710145643 0.9612218458430662 -0.22949703520524747 -0.006971993926628806 0.02060428100235423
 0.022875074041778992 0.10444637710145653 0.022875074041778222 0.10444637710146529 -0.006971993926628803 0.02060428100235423 0.9612218458430742 -0.22949703520520737
13000000.0 0.9566821357036961 -0.24352207602190237 -0.0059805869508155396 0.027081622533186918 0.024649225623558153 0.1082202267443633 0.024649225623556877 0.1082202267443683
 -0.005980586950815536 0.02708162253318692 0.9566821357037087 -0.24352207602184878 0.02464922562355614 0.10822022674436813 0.024649225623556068 0.10822022674437749
 0.024649225623558136 0.10822022674436323 0.024649225623556138 0.10822022674436808 0.9581728144806819 -0.23810436425093887 -0.007471265727800561 0.02166391076222301
 0.024649225623556852 0.1082202267443682 0.024649225623556047 0.1082202267443774 -0.0074712657278005615 0.021663910762222995 0.9581728144806906 -0.23810436425089726
13500000.0 0.9534186515305153 -0.252250264169524 -0.006376666421112851 0.0283505688148759 0.02647900744529731 0.11194984767732982 0.026479007445295945 0.11194984767733507
 -0.006376666421112842 0.02835056881487589 0.9534186515305286 -0.2522502641694686 0.026479007445295154 0.11194984767733487 0.026479007445295088 0.11194984767734463
 0.026479007445297294 0.11194984767732977 0.026479007445295178 0.11194984767733493 0.9550216731064296 -0.2466481208693153 -0.007979687997026568 0.02274842551466686
 0.026479007445295927 0.11194984767733497 0.02647900744529507 0.11194984767734453 -0.007979687997026561 0.022748425514666847 0.9550216731064388 -0.2466481208692723
14000000.0 0.9500513121309171 -0.2609105296366154 -0.006777283064303329 0.029642269105706217 0.02836298546669162 0.11563413026546054 0.028362985466690166 0.115634130265466
 -0.006777283064303325 0.029642269105706213 0.9500513121309307 -0.26091052963655803 0.028362985466689326 0.1156341302654658 0.02836298546668925 0.11563413026547593
 0.028362985466691602 0.11563413026546045 0.02836298546668933 0.11563413026546582 0.9517702438004103 -0.2551265419313847 -0.008496214733796357 0.023858281400475242
 0.02836298546669016 0.11563413026546597 0.028362985466689247 0.11563413026547589 -0.008496214733796357 0.023858281400475235 0.9517702438004204 -0.2551265419313402
14500000.0 0.9465820458121387 -0.2695011015104015 -0.007181448060168787 0.030957058845447777 0.030299701124013385 0.11927202133248307 0.03029970112401184 0.11927202133248876
 -0.00718144806016878 0.030957058845447777 0.9465820458121534 -0.2695011015103424 0.030299701124010932 0.11927202133248857 0.03029970112401088 0.11927202133249915
 0.030299701124013353 0.11927202133248298 0.030299701124010946 0.11927202133248861 0.9484203850309019 -0.2635379304063888 -0.009019787278931886 0.02499388774143476
 0.03029970112401183 0.11927202133248874 0.030299701124010862 0.11927202133249908 -0.009019787278931884 0.02499388774143475 0.9484203850309127 -0.26353793040634294
15000000.0 0.9430128161300148 -0.27802027781503486 -0.00758816394254665 0.03229522870016635 0.032287673906264004 0.12286252455744062 0.03228767390626239 0.12286252455744663
 -0.007588163942546646 0.03229522870016635 0.9430128161300309 -0.27802027781497396 0.03228767390626143 0.12286252455744648 0.03228767390626138 0.12286252455745737
 0.032287673906264 0.1228625245574406 0.03228767390626144 0.12286252455744649 0.9449739887938301 -0.2718806560166464 -0.009549336606361297 0.02615560690177754
 0.03228767390626237 0.12286252455744652 0.03228767390626136 0.12286252455745728 -0.00954933660636129 0.026155606901777522 0.9449739887938415 -0.2718806560165992
15500000.0 0.9393456189592571 -0.28646642606905476 -0.00799642679227235 0.03365702458893721 0.034325403916505765 0.12640470074006532 0.034325403916504064 0.1264047007400716
 -0.007996426792272344 0.03365702458893722 0.9393456189592739 -0.2864664260689921 0.03432540391650305 0.12640470074007146 0.03432540391650301 0.12640470074008275
 0.03432540391650575 0.1264047007400653 0.03432540391650306 0.12640470074007149 0.9414329777607108 -0.2801531557513981 -0.010083785593726012 0.027343754271280277
 0.03432540391650405 0.12640470074007154 0.03432540391650299 0.1264047007400827 -0.010083785593726012 0.027343754271280264 0.9414329777607232 -0.2801531557513495
16000000.0 0.9355824795786785 -0.29483798370153014 -0.00840522840097651 0.03504264782602196 0.03641137441114702 0.12989766793776095 0.0364113744111452 0.1298976679377674
 -0.008405228400976501 0.03504264782602196 0.9355824795786963 -0.29483798370146574 0.03641137441114414 0.1298976679377673 0.03641137441114411 0.12989766793777902
 0.036411374411146995 0.12989766793776086 0.03641137441114414 0.12989766793776733 0.9377993024426672 -0.288353934242423 -0.010622051264964918 0.028558598366914406
 0.03641137441114518 0.12989766793776733 0.03641137441114408 0.12989766793777893 -0.010622051264964917 0.02855859836691439 0.9377993024426801 -0.28835393424237293
16500000.0 0.9317254497787829 -0.30313345833005867 -0.008813558399345178 0.036452255374988154 0.038544054310278776 0.1333406014775423 0.03854405431027688 0.13334060147754906
 -0.00881355839934517 0.03645225537498815 0.931725449778802 -0.30313345832999267 0.038544054310275765 0.13334060147754898 0.03854405431027575 0.1333406014775611
 0.03854405431027875 0.13334060147754223 0.03854405431027577 0.133340601477549 0.934074938377787 -0.2964815640046219 -0.011163046998348712 0.029800361049550972
 0.038544054310276854 0.13334060147754895 0.03854405431027571 0.13334060147756097 -0.01116304699834871 0.02980036104955095 0.9340749383778008 -0.29648156400457054
17000000.0 0.9277766049987811 -0.31135142790419484 -0.009220406343801963 0.03788596021089304 0.04072190067250797 0.13673273384665818 0.04072190067250596 0.13673273384666518
 -0.009220406343801958 0.03788596021089304 0.9277766049988013 -0.3113514279041271 0.040721900672504786 0.13673273384666512 0.040721900672504786 0.13673273384667764
 0.04072190067250794 0.1367327338466581 0.04072190067250478 0.13673273384666512 0.9302618833487679 -0.3045346855451622 -0.011705684693787967 0.031069217851859877
 0.040721900672505945 0.13673273384666512 0.04072190067250476 0.13673273384667753 -0.011705684693787969 0.031069217851859867 0.9302618833487825 -0.3045346855451095
17500000.0 0.9237380414997367 -0.31949054071825267 -0.009624763755940588 0.03934383178632874 0.04294336112809942 0.14007335446596947 0.04294336112809733 0.14007335446597674
 -0.009624763755940575 0.039343831786328734 0.9237380414997579 -0.3194905407181832 0.04294336112809609 0.1400733544659767 0.042943361128096116 0.14007335446598962
 0.04294336112809939 0.14007335446596939 0.04294336112809611 0.14007335446597677 0.9263621546374057 -0.31251200734513684 -0.012248876893608833 0.0323652984132124
 0.042943361128097296 0.14007335446597663 0.042943361128096075 0.14007335446598948 -0.012248876893608825 0.03236529841321239 0.9263621546374206 -0.31251200734508283
18000000.0 0.9196118735801692 -0.3275495152977599 -0.010025626109421636 0.04082589659683564 0.04520687626462368 0.1433618093504698 0.045206876264621505 0.14336180935047738
 -0.01002562610942163 0.04082589659683564 0.919611873580191 -0.3275495152976887 0.04520687626462019 0.14336180935047735 0.04520687626462024 0.1433618093504907
 0.04520687626462365 0.14336180935046974 0.0452068762646202 0.14336180935047738 0.9223777863221237 -0.32041230571802404 -0.012791538851375616 0.03368868701709934
 0.04520687626462148 0.1433618093504773 0.04520687626462022 0.1433618093504906 -0.012791538851375605 0.03368868701709932 0.92237778632214 -0.3204123057179688
18500000.0 0.9154002308400317 -0.3355271401641417 -0.01042199475944472 0.0423321388409355 0.04751088195970368 0.146597500661611 0.04751088195970142 0.14659750066161886
 -0.010421994759444712 0.04233213884093549 0.9154002308400551 -0.33552714016406904 0.04751088195970006 0.14659750066161895 0.04751088195970013 0.14659750066163263
 0.04751088195970365 0.14659750066161092 0.04751088195970007 0.14659750066161895 0.9183108266243261 -0.3282344245495217 -0.013332590543738407 0.035039423226314884
 0.04751088195970138 0.14659750066161878 0.04751088195970011 0.14659750066163257 -0.013332590543738407 0.03503942322631486 0.918310826624343 -0.32823442454946516
19000000.0 0.911105255498584 -0.34342227348247767 -0.010812878810313991 0.0438625011698135 0.049853811655861946 0.14977988615634022 0.04985381165585958 0.14977988615634835
 -0.010812878810313984 0.04386250116981349 0.9111052554986088 -0.3434222734824034 0.04985381165585816 0.1497798861563484 0.049853811655858254 0.14977988615636253
 0.04985381165586191 0.1497798861563401 0.049853811655858164 0.14977988615634844 0.9141633353089622 -0.33597727492359447 -0.013870958620691388 0.03641750261092966
 0.04985381165585954 0.1497798861563482 0.04985381165585821 0.14977988615636242 -0.013870958620691383 0.03641750261092964 0.9141633353089798 -0.3359772749235366
19500000.0 0.906729099771254 -0.35123384259740165 -0.011197296917028162 0.045416885521492784 0.052234098572883934 0.15290847853796272 0.052234098572881506 0.15290847853797118
 -0.011197296917028152 0.04541688552149278 0.90672909977128 -0.35123384259732593 0.052234098572880035 0.1529084785379713 0.052234098572880173 0.15290847853798584
 0.05223409857288391 0.15290847853796263 0.052234098572880056 0.15290847853797135 0.9099373811442691 -0.34363983463979186 -0.014405578290042595 0.03782287756388245
 0.05223409857288148 0.1529084785379711 0.05223409857288012 0.15290847853798573 -0.014405578290042595 0.037822877563882445 0.9099373811442877 -0.3436398346397328
20000000.0 0.9022739233101688 -0.35896084346241686 -0.011574279017242858 0.04699515403419122 0.05465017785353386 0.15598284471412133 0.05465017785353131 0.15598284471413004
 -0.01157427901724284 0.04699515403419121 0.9022739233101956 -0.3589608434623394 0.05465017785352976 0.15598284471413015 0.054650177853529935 0.15598284471414517
 0.05465017785353382 0.15598284471412124 0.0546501778535298 0.15598284471413024 0.9056350394252406 -0.35122114762708867 -0.014935395132314263 0.03925545819886248
 0.05465017785353129 0.15598284471412996 0.054650177853529894 0.15598284471414503 -0.014935395132314244 0.039255458198862454 0.90563503942526 -0.35122114762702833
20500000.0 0.8977418907126072 -0.3666023399680522 -0.01194286799037033 0.0485971300334308 0.05710048863887809 0.1590026049673194 0.057100488638875464 0.15900260496732846
 -0.011942867990370325 0.048597130033430795 0.8977418907126353 -0.36660233996797337 0.05710048863887387 0.15900260496732868 0.057100488638874056 0.15900260496734403
 0.05710048863887805 0.15900260496731936 0.057100488638873896 0.15900260496732874 0.9012583895649496 -0.3587203232596501 -0.015459366842712024 0.04071511332502806
 0.05710048863887543 0.15900260496732838 0.05710048863887403 0.15900260496734395 -0.015459366842712024 0.040715113325028036 0.9012583895649698 -0.35872032325958847
21000000.0 0.8931351691012009 -0.3741574631744206 -0.012302121240997122 0.05022259908738329 0.05958347606989424 0.1619674320435276 0.05958347606989156 0.16196743204353703
 -0.012302121240997102 0.050222599087383274 0.8931351691012305 -0.3741574631743404 0.05958347606988987 0.16196743204353717 0.059583476069890146 0.16196743204355302
 0.059583476069894205 0.16196743204352748 0.059583476069889896 0.16196743204353722 0.8968095127574238 -0.36613653558005327 -0.01597646489721938 0.04220167149301525
 0.05958347606989152 0.16196743204353686 0.059583476069890104 0.16196743204355293 -0.015976464897219374 0.04220167149301522 0.8968095127574456 -0.36613653557999076
21500000.0 0.8884559257792883 -0.3816254104538311 -0.012651112204211017 0.051871310124878965 0.06209759321245744 0.16487705016448514 0.06209759321245463 0.16487705016449483
 -0.012651112204211 0.05187131012487895 0.8884559257793189 -0.38162541045374926 0.06209759321245292 0.16487705016449514 0.062097593212453187 0.16487705016451135
 0.06209759321245741 0.16487705016448512 0.06209759321245295 0.1648770501644952 0.8922904897153652 -0.3734690224355814 -0.01648567614028722 0.04371492210662862
 0.0620975932124546 0.16487705016449472 0.06209759321245318 0.16487705016451126 -0.016485676140287214 0.043714922106628605 0.8922904897153875 -0.37346902243551744
22000000.0 0.8837063259644091 -0.3890054445491736 -0.012988931770833413 0.05354297661048067 0.06464130290320796 0.16773123396935588 0.06464130290320509 0.16773123396936587
 -0.012988931770833404 0.053542976610480665 0.883706325964441 -0.38900544454909036 0.0646413029032033 0.1677312339693662 0.06464130290320363 0.16773123396938283
 0.06464130290320792 0.16773123396935577 0.06464130290320333 0.1677312339693662 0.887703398485572 -0.38071708453326947 -0.016986004291995264 0.04525461659457569
 0.06464130290320505 0.1677312339693658 0.06464130290320358 0.16773123396938272 -0.016986004291995264 0.04525461659457568 0.8877033984855952 -0.38071708453320435
22500000.0 0.8788885306025254 -0.39629689255383543 -0.013314689630948522 0.05523727777102791 0.06721307951420726 0.17052980739141335 0.0672130795142043 0.17052980739142365
 -0.013314689630948505 0.05523727777102789 0.8788885306025586 -0.39629689255375083 0.06721307951420248 0.17052980739142407 0.06721307951420283 0.17052980739144108
 0.06721307951420723 0.17052980739141324 0.0672130795142025 0.1705298073914241 0.8830503123445393 -0.3878800844194129 -0.017476471372961842 0.04682046963660459
 0.06721307951420424 0.1705298073914235 0.0672130795142028 0.170529807391441 -0.017476471372961842 0.04682046963660457 0.8830503123445634 -0.3878800844193467
23000000.0 0.874004694265136 -0.4034991448189029 -0.01362751553450591 0.05695385986808578 0.0698114106346805 0.17327264247541843 0.06981141063467747 0.1732726424754291
 -0.01362751553450591 0.05695385986808577 0.8740046942651702 -0.4034991448188171 0.0698114106346756 0.17327264247542953 0.06981141063467602 0.17327264247544705
 0.06981141063468047 0.17327264247541835 0.06981141063467561 0.17327264247542956 0.878333297776296 -0.3949574453892483 -0.017956119045665155 0.04841216043843021
 0.06981141063467743 0.17327264247542898 0.06981141063467595 0.1732726424754469 -0.017956119045665134 0.04841216043843017 0.878333297776321 -0.394957445389181
23500000.0 0.8690569631310824 -0.41061165379339803 -0.013926560468145246 0.05869233751078995 0.0724347986685269 0.17595965814131403 0.07243479866852374 0.17595965814132494
 -0.013926560468145239 0.05869233751078995 0.8690569631311179 -0.4106116537933107 0.07243479866852183 0.17595965814132547 0.07243479866852229 0.17595965814134334
 0.07243479866852687 0.17595965814131395 0.07243479866852186 0.17595965814132553 0.8735544125341541 -0.4019486503324937 -0.018424009871216465 0.05002933404988496
 0.07243479866852373 0.1759596581413249 0.07243479866852223 0.17595965814134323 -0.018424009871216465 0.050029334049884945 0.8735544125341799 -0.4019486503324253
24000000.0 0.8640474730544498 -0.41763393280323896 -0.014210997747750862 0.06045229500365805 0.0750817623466456 0.17859081889980077 0.07508176234664238 0.17859081889981204
 -0.01421099774775085 0.060452295003658035 0.864047473054487 -0.4176339328031505 0.07508176234664038 0.1785908188998126 0.07508176234664093 0.178590818899831
 0.07508176234664554 0.17859081889980066 0.07508176234664043 0.1785908188998127 0.8687157037876871 -0.4088532405203886 -0.018879228480987272 0.05167160272080667
 0.07508176234664232 0.17859081889981193 0.0750817623466409 0.1785908188998309 -0.018879228480987265 0.05167160272080665 0.8687157037877139 -0.40885324052031913
24500000.0 0.8589783477196173 -0.4245655547745641 -0.014480024026586647 0.06223328772404027 0.07775083815347968 0.18116613352527244 0.07775083815347636 0.18116613352528405
 -0.014480024026586635 0.06223328772404028 0.8589783477196556 -0.42456555477447416 0.07775083815347435 0.1811661335252847 0.07775083815347494 0.18116613352530347
 0.07775083815347962 0.1811661335252723 0.07775083815347436 0.18116613352528474 0.8638192063558707 -0.41567081433979775 -0.019320882662839278 0.05333854728927281
 0.07775083815347632 0.18116613352528393 0.07775083815347489 0.18116613352530334 -0.01932088266283927 0.05333854728927279 0.8638192063558985 -0.4156708143397271
25000000.0 0.8538516968841467 -0.431406150906945 -0.014732860219188766 0.06403484352400321 0.08044058166751561 0.18368565369148154 0.0804405816675123 0.18368565369149356
 -0.01473286021918875 0.06403484352400321 0.8538516968841864 -0.43140615090685386 0.08044058166751016 0.18368565369149423 0.08044058166751085 0.18368565369151343
 0.08044058166751557 0.1836856536914815 0.0804405816675102 0.18368565369149428 0.858866941026996 -0.4224010259798518 -0.019748104362037226 0.05502971859690922
 0.08044058166751224 0.18368565369149345 0.0804405816675108 0.18368565369151332 -0.01974810436203721 0.055029718596909194 0.8588669410270249 -0.4224010259797804
25500000.0 0.8486696147098917 -0.43815540930193125 -0.01496875234150288 0.06585646415158232 0.08314956881579988 0.1861494725751854 0.08314956881579645 0.1861494725751977
 -0.014968752341502863 0.06585646415158229 0.848669614709933 -0.43815540930183905 0.08314956881579433 0.18614947257519848 0.08314956881579506 0.18614947257521813
 0.08314956881579982 0.1861494725751853 0.08314956881579436 0.18614947257519857 0.853860912965627 -0.4290435840764883 -0.02016005059723753 0.056744638926138395
 0.0831495688157964 0.1861494725751976 0.08314956881579504 0.18614947257521808 -0.02016005059723754 0.05674463892613836 0.8538609129656569 -0.4290435840764157
26000000.0 0.8434341781823662 -0.4448130735522218 -0.01518697226804332 0.0676976266864944 0.0858763970428328 0.18855772343287486 0.08587639704282927 0.18855772343288743
 -0.015186972268043306 0.06769762668649439 0.8434341781824084 -0.4448130735521282 0.08587639704282708 0.18855772343288835 0.08587639704282791 0.18855772343290841
 0.08587639704283274 0.18855772343287477 0.08587639704282708 0.18855772343288835 0.8488031102065647 -0.43559825032011357 -0.02055590429224124 0.05848280345438531
 0.08587639704282925 0.1885577234328874 0.08587639704282786 0.18855772343290833 -0.02055590429224124 0.05848280345438529 0.8488031102065956 -0.43559825032004
26500000.0 0.8381474456181351 -0.45137894129662404 -0.01538681840712448 0.0695577849855743 0.08861968639448857 0.19091057815553616 0.08861968639448504 0.19091057815554918
 -0.015386818407124449 0.06955778498557427 0.8381474456181789 -0.4513789412965291 0.08861968639448273 0.19091057815555007 0.08861968639448367 0.1909105781555706
 0.08861968639448853 0.19091057815553608 0.08861968639448278 0.19091057815555015 0.8436955022354874 -0.4420648380314791 -0.020934875024476 0.060243681720428564
 0.08861968639448498 0.19091057815554904 0.08861968639448363 0.1909105781555705 -0.02093487502447599 0.06024368172042852 0.8436955022355191 -0.4420648380314048
27000000.0 0.8328114552597072 -0.45785286274580433 -0.0155676162954669 0.07143637113338311 0.09137808051787348 0.19320824580622226 0.09137808051786986 0.1932082458062356
 -0.015567616295466874 0.0714363711333831 0.8328114552597523 -0.45785286274570863 0.09137808051786755 0.19320824580623655 0.09137808051786855 0.19320824580625753
 0.09137808051787343 0.19320824580622215 0.09137808051786761 0.19320824580623666 0.8385400386556706 -0.44844321071068727 -0.021296199691429638 0.06202671909826498
 0.09137808051786982 0.19320824580623552 0.09137808051786851 0.19320824580625742 -0.021296199691429624 0.06202671909826494 0.8385400386557035 -0.44844321071061183
27500000.0 0.8274282239571397 -0.4642347391836601 -0.015728719113714464 0.07333279689363163 0.0941502475782809 0.19545097114502605 0.09415024757827725 0.19545097114503981
 -0.015728719113714467 0.07333279689363162 0.827428223957186 -0.4642347391835631 0.09415024757827492 0.1954509711450409 0.094150247578276 0.1954509711450623
 0.09415024757828086 0.195450971145026 0.09415024757827495 0.19545097114504095 0.8333386479399207 -0.4547332805640792 -0.021639143096495013 0.06383133827404971
 0.09415024757827724 0.19545097114503976 0.09415024757827595 0.19545097114506216 -0.021639143096495 0.06383133827404966 0.8333386479399547 -0.4547332805640028
28000000.0 0.8219997459353366 -0.47052452144896206 -0.015869508124612394 0.07524645515726683 0.09693488109463104 0.19763903314585965 0.09693488109462733 0.19763903314587383
 -0.015869508124612377 0.0752464551572668 0.8219997459353844 -0.4705245214488641 0.09693488109462495 0.19763903314587491 0.0969348810946261 0.1976390331458967
 0.09693488109463096 0.1976390331458595 0.09693488109462496 0.19763903314587494 0.8280932362666297 -0.46093500701357154 -0.021962998455904655 0.06565694072187522
 0.09693488109462729 0.1976390331458737 0.09693488109462606 0.19763903314589662 -0.021962998455904634 0.0656569407218752 0.8280932362666645 -0.4609350070134942
28500000.0 0.8165279916457979 -0.47672220840173357 -0.015989393035790035 0.07717672138328203 0.09973070069498893 0.1997727435092381 0.09973070069498517 0.19977274350925261
 -0.015989393035790014 0.07717672138328201 0.8165279916458471 -0.4767222084016345 0.09973070069498272 0.1997727435092538 0.09973070069498398 0.19977274350927604
 0.09973070069498884 0.199772743509238 0.09973070069498274 0.1997727435092539 0.8228056864386413 -0.4670483951928168 -0.022267087828632404 0.06750290817436398
 0.09973070069498512 0.19977274350925253 0.09973070069498394 0.19977274350927596 -0.02226708782863239 0.06750290817436394 0.8228056864386771 -0.4670483951927386
29000000.0 0.8110149067013624 -0.4828278453786256 -0.016087812289266916 0.07912295502852812 0.1025364527939448 0.2018524451750613 0.10253645279394097 0.20185244517507614
 -0.016087812289266906 0.0791229550285281 0.8110149067014133 -0.48282784537852547 0.10253645279393848 0.20185244517507747 0.10253645279393986 0.20185244517510015
 0.10253645279394467 0.20185244517506115 0.10253645279393851 0.20185244517507753 0.8174778568834139 -0.47307349443436275 -0.022550762471317504 0.06936860408426405
 0.10253645279394091 0.20185244517507603 0.1025364527939398 0.2018524451751 -0.02255076247131751 0.06936860408426401 0.8174778568834508 -0.4730734944342837
29500000.0 0.805462410892321 -0.4888415226413504 -0.01616423327995566 0.08108450096302715 0.1053509111938098 0.2038785108391744 0.10535091119380588 0.20387851083918956
 -0.016164233279955656 0.08108450096302715 0.805462410892373 -0.4888415226412492 0.1053509111938034 0.20387851083919104 0.10535091119380482 0.2038785108392141
 0.10535091119380971 0.20387851083917433 0.10535091119380341 0.20387851083919106 0.8121115807327941 -0.4790103967517846 -0.022813403120427785 0.07125337507346009
 0.10535091119380587 0.20387851083918956 0.10535091119380478 0.203878510839214 -0.02281340312042779 0.07125337507346005 0.8121115807328319 -0.4790103967517045
30000000.0 0.7998723972820939 -0.49476337382202734 -0.016218152505572018 0.08306069086751348 0.10817287761173107 0.20585134147726986 0.10817287761172724 0.20585134147728557
 -0.016218152505572014 0.08306069086751347 0.7998723972821471 -0.494763373821925 0.10817287761172459 0.20585134147728698 0.10817287761172621 0.2058513414773106
 0.10817287761173104 0.20585134147726986 0.10817287761172463 0.20585134147728706 0.8067086649805416 -0.48485923532054825 -0.023054420204018693 0.07315655236603308
 0.10817287761172716 0.20585134147728545 0.10817287761172614 0.2058513414773105 -0.023054420204018666 0.07315655236603304 0.8067086649805807 -0.48485923532046754
30500000.0 0.7942467313805331 -0.5005935743690861 -0.016249095650480116 0.08505084461015565 0.11100118213496515 0.20777136487947856 0.11100118213496125 0.20777136487949463
 -0.016249095650480105 0.08505084461015562 0.7942467313805883 -0.5005935743689832 0.11100118213495865 0.20777136487949613 0.1110011821349604 0.20777136487952022
 0.1110011821349651 0.2077713648794785 0.11100118213495866 0.20777136487949618 0.8012708897156222 -0.49062018296116294 -0.02327325398556803 0.07507745320223098
 0.11100118213496123 0.20777136487949455 0.11100118213496034 0.2077713648795201 -0.023273253985568013 0.07507745320223097 0.8012708897156622 -0.4906201829610814
31000000.0 0.7885872503927653 -0.5063323399971541 -0.016256617606101205 0.08705427159963629 0.11383468360665935 0.2096390341987724 0.11383468360665541 0.2096390341987888
 -0.016256617606101188 0.0870542715996363 0.7885872503928216 -0.5063323399970501 0.11383468360665279 0.20963903419879046 0.11383468360665465 0.209639034198815
 0.11383468360665931 0.2096390341987723 0.11383468360665282 0.20963903419879054 0.7958000074291358 -0.49629345062795444 -0.023469374642470942 0.07701538223043533
 0.11383468360665538 0.2096390341987887 0.11383468360665458 0.20963903419881486 -0.023469374642470942 0.07701538223043529 0.795800007429177 -0.49629345062787217
31500000.0 0.7828957625413893 -0.5119799251441507 -0.016240302430597684 0.08907027211199704 0.11667226994459536 0.21145482651609057 0.11667226994459141 0.21145482651610742
 -0.016240302430597656 0.089070272111997 0.7828957625414469 -0.5119799251440458 0.11667226994458868 0.21145482651610906 0.11667226994459064 0.21145482651613398
 0.1166722699445953 0.2114548265160905 0.11667226994458875 0.21145482651610917 0.7902977423926599 -0.5018792859065909 -0.023642282281867395 0.07896963287443577
 0.11667226994459133 0.21145482651610728 0.1166722699445906 0.2114548265161339 -0.02364228228186739 0.07896963287443574 0.7902977423927022 -0.5018792859065077
32000000.0 0.7771740464597421 -0.5175366214385948 -0.016199763250609622 0.09109813858887397 0.1195128583954246 0.21321924142487453 0.11951285839542058 0.2132192414248917
 -0.0161997632506096 0.09109813858887393 0.777174046459801 -0.5175366214384891 0.11951285839541782 0.21321924142489346 0.11951285839541993 0.21321924142491883
 0.11951285839542451 0.2132192414248744 0.11951285839541786 0.2132192414248935 0.7847657901056787 -0.5073779715232695 -0.023791506896545196 0.080939488673547
 0.1195128583954205 0.2132192414248916 0.11951285839541984 0.2132192414249187 -0.023791506896545196 0.08093948867354696 0.7847657901057219 -0.5073779715231853
32500000.0 0.7714238506538614 -0.5230027561799244 -0.016134642107873187 0.09313715690497405 0.1223553957269965 0.21493279963748949 0.12235539572699244 0.21493279963750705
 -0.016134642107873173 0.09313715690497402 0.7714238506539218 -0.5230027561798177 0.12235539572698967 0.21493279963750894 0.12235539572699193 0.2149327996375347
 0.12235539572699644 0.21493279963748937 0.12235539572698974 0.21493279963750903 0.7792058168097067 -0.5127898238682745 -0.02391660826371728 0.08292422459332251
 0.1223553957269924 0.21493279963750694 0.12235539572699185 0.2149327996375346 -0.023916608263717266 0.08292422459332245 0.7792058168097508 -0.5127898238681896
33000000.0 0.7656468930307112 -0.528378690834414 -0.01604460975358491 0.09518660760285473 0.12519885836142705 0.21659604161579418 0.125198858361423 0.2165960416158121
 -0.01604460975358489 0.09518660760285472 0.7656468930307734 -0.5283786908343067 0.12519885836142025 0.21659604161581414 0.12519885836142264 0.21659604161584042
 0.12519885836142697 0.21659604161579402 0.12519885836142028 0.2165960416158142 0.773619459066639 -0.518115191536396 -0.024017175789511812 0.08492310830483514
 0.12519885836142294 0.216596041615812 0.1251988583614225 0.21659604161584026 -0.024017175789511788 0.08492310830483508 0.7736194590666843 -0.5181151915363104
33500000.0 0.7598448604901868 -0.5336648195490838 -0.015929365393398336 0.0972457670932832 0.1280422524515958 0.21820952622791503 0.1280422524515918 0.2182095262279335
 -0.01592936539339831 0.09724576709328318 0.7598448604902499 -0.5336648195489754 0.12804225245158893 0.21820952622793552 0.12804225245159145 0.2182095262279622
 0.12804225245159573 0.21820952622791495 0.12804225245158898 0.21820952622793555 0.7680083233988294 -0.5233544538865095 -0.024092828302039994 0.08693540143070726
 0.1280422524515917 0.21820952622793333 0.12804225245159137 0.21820952622796208 -0.02409282830203997 0.08693540143070722 0.7680083233988757 -0.5233544538864231
34000000.0 0.754019408578366 -0.5388615676857811 -0.015788636385947442 0.09931390881965492 0.13088461390378028 0.2197738294330781 0.13088461390377623 0.21977382943309692
 -0.015788636385947432 0.0993139088196549 0.7540194085784306 -0.538861567685672 0.13088461390377337 0.21977382943309912 0.13088461390377604 0.21977382943312623
 0.1308846139037802 0.21977382943307802 0.1308846139037734 0.21977382943309912 0.7623739859883386 -0.5285080196224043 -0.024143213795918946 0.08896036075627642
 0.1308846139037762 0.21977382943309684 0.13088461390377598 0.21977382943312612 -0.024143213795918935 0.08896036075627639 0.762373985988386 -0.5285080196223174
34500000.0 0.7481721611994655 -0.5439693903774345 -0.015622177897787996 0.10139030438515124 0.13372500834915055 0.22128954299615697 0.1337250083491465 0.22128954299617618
 -0.015622177897787968 0.10139030438515123 0.7481721611995314 -0.5439693903773245 0.13372500834914358 0.22128954299617842 0.1337250083491464 0.22128954299620598
 0.13372500834915046 0.22128954299615686 0.1337250083491436 0.22128954299617845 0.7567179924328062 -0.5335763253967707 -0.02416800913112759 0.09099723940448559
 0.1337250083491464 0.221289542996176 0.13372500834914633 0.22128954299620585 -0.024168009131127575 0.09099723940448556 0.7567179924328544 -0.5335763253966831
35000000.0 0.7423047103839248 -0.5489887711082776 -0.015429772517631337 0.10347422464150645 0.1365625310668423 0.22275727323340133 0.1365625310668382 0.22275727323342084
 -0.015429772517631325 0.10347422464150641 0.7423047103839923 -0.548988771108167 0.13656253106683527 0.22275727323342323 0.13656253106683824 0.2227572732334512
 0.13656253106684213 0.2227572732334011 0.13656253106683533 0.22275727323342326 0.751041857555356 -0.5385598344400485 -0.024166919689061588 0.09304528797327545
 0.13656253106683813 0.22275727323342073 0.13656253106683816 0.22275727323345104 -0.024166919689061577 0.0930452879732754 0.7510418575554054 -0.5385598344399602
35500000.0 0.7364186161100579 -0.5539202203196724 -0.015211229832720653 0.10556494073844079 0.13939630686132007 0.22417763979063168 0.13939630686131607 0.22417763979065175
 -0.015211229832720653 0.10556494073844078 0.7364186161101265 -0.5539202203195609 0.13939630686131307 0.2241776397906541 0.13939630686131624 0.22417763979068261
 0.13939630686131999 0.22417763979063163 0.1393963068613131 0.22417763979065414 0.7453470652659697 -0.5434590352156797 -0.024139678988631688 0.0951037556344462
 0.139396306861316 0.2241776397906516 0.13939630686131615 0.22417763979068245 -0.024139678988631685 0.09510375563444615 0.7453470652660203 -0.5434590352155908
36000000.0 0.7305154061767045 -0.5587642740429729 -0.014966385970162458 0.10766172513299188 0.1422254898967173 0.2255512744550066 0.1422254898967133 0.22555127445502704
 -0.014966385970162435 0.10766172513299184 0.7305154061767747 -0.5587642740428608 0.1422254898967103 0.2255512744550296 0.14222548989671357 0.22555127445505838
 0.14222548989671724 0.22555127445500653 0.1422254898967103 0.22555127445502965 0.7396350684717609 -0.5482744401031137 -0.024086048265217867 0.09717189119313083
 0.14222548989671321 0.22555127445502687 0.14222548989671352 0.22555127445505832 -0.02408604826521786 0.09717189119313079 0.7396350684718123 -0.5482744401030242
36500000.0 0.7245965761243367 -0.5635214925607094 -0.014695103105982023 0.10976385255814483 0.14504926349081046 0.22687882000129872 0.14504926349080652 0.22687882000131965
 -0.014695103105982002 0.10976385255814479 0.7245965761244085 -0.5635214925605968 0.14504926349080352 0.22687882000132226 0.14504926349080702 0.2268788200013516
 0.14504926349081038 0.2268788200012986 0.14504926349080358 0.2268788200013223 0.7339072890336058 -0.5530065841097603 -0.024005816015250044 0.0992489441071937
 0.14504926349080638 0.22687882000131943 0.1450492634908069 0.22687882000135146 -0.024005816015250033 0.09924894410719363 0.7339072890336584 -0.55300658410967
37000000.0 0.718663589202099 -0.5681924590972078 -0.014397268944618775 0.1118706009503231 0.14786683987124738 0.2281609290734591 0.1478668398712434 0.2281609290734804
 -0.01439726894461875 0.11187060095032306 0.718663589202172 -0.5681924590970944 0.14786683987124039 0.22816092907348318 0.14786683987124402 0.22816092907351282
 0.14786683987124727 0.228160929073459 0.1478668398712404 0.2281609290734832 0.728165117766619 -0.5576560236129159 -0.02389879750913761 0.10133416546602898
 0.14786683987124327 0.2281609290734802 0.1478668398712439 0.2281609290735127 -0.02389879750913761 0.10133416546602893 0.7281651177666725 -0.557656023612825
37500000.0 0.7127178763782892 -0.5727777785396044 -0.014072796171517398 0.11398125233545359 0.1506774598966012 0.2293982631020924 0.15067745989659725 0.2293982631021141
 -0.014072796171517386 0.11398125233545355 0.7127178763783635 -0.5727777785394904 0.1506774598965942 0.22939826310211694 0.15067745989659803 0.229398263102147
 0.1506774598966011 0.2293982631020923 0.15067745989659426 0.22939826310211697 0.7224099144819865 -0.5622233351325414 -0.023764834275213694 0.10342680892838853
 0.1506774598965972 0.22939826310211392 0.15067745989659795 0.2293982631021469 -0.023764834275213673 0.10342680892838847 0.7224099144820413 -0.5622233351324502
38000000.0 0.7067608363918362 -0.5772780761900693 -0.013721621881404335 0.11609509367346085 0.15348039274477077 0.23059149125832165 0.15348039274476685 0.23059149125834374
 -0.01372162188140433 0.11609509367346084 0.706760836391912 -0.577278076189955 0.15348039274476377 0.23059149125834666 0.15348039274476782 0.23059149125837722
 0.15348039274477068 0.23059149125832154 0.15348039274476383 0.23059149125834663 0.716643008067729 -0.5667091141356215 -0.02360379355729585 0.10552613161901077
 0.15348039274476674 0.23059149125834355 0.15348039274476769 0.23059149125837705 -0.023603793557295853 0.1055261316190107 0.7166430080677846 -0.5667091141355295
38500000.0 0.7007938358423635 -0.5816939965499173 -0.013343706984766834 0.118211417661183 0.15627493557118805 0.23174128944438474 0.15627493557118416 0.2317412894444072
 -0.013343706984766824 0.11821141766118298 0.7007938358424409 -0.5816939965498021 0.15627493557118113 0.23174128944441036 0.15627493557118532 0.23174128944444128
 0.156274935571188 0.23174128944438466 0.1562749355711812 0.2317412894444104 0.7108656966059956 -0.5711139738726984 -0.023415567748397693 0.10763139498396185
 0.1562749355711841 0.2317412894444071 0.15627493557118521 0.2317412894444412 -0.023415567748397686 0.10763139498396179 0.7108656966060521 -0.5711139738726058
39000000.0 0.6948182093164887 -0.5860262021361404 -0.012939035594975811 0.12032952349382377 0.15906041313922956 0.23284833932117624 0.15906041313922578 0.2328483393211992
 -0.012939035594975792 0.12032952349382375 0.6948182093165673 -0.5860262021360249 0.15906041313922265 0.23284833932120233 0.15906041313922706 0.23284833932123375
 0.15906041313922942 0.2328483393211761 0.15906041313922267 0.23284833932120236 0.7050792475245644 -0.5754385442470443 -0.023200073803050673 0.10974186560472542
 0.15906041313922564 0.232848339321199 0.15906041313922695 0.2328483393212336 -0.02320007380305067 0.10974186560472537 0.7050792475246224 -0.5754385442469514
39500000.0 0.68883525954806 -0.5902753723307931 -0.012507614398411599 0.12244871758517659 0.1618361774251614 0.23391332737282652 0.16183617742515763 0.23391332737284987
 -0.012507614398411578 0.12244871758517657 0.6888352595481398 -0.5902753723306768 0.16183617742515455 0.23391332737285314 0.1618361774251592 0.23391332737288503
 0.16183617742516132 0.23391332737282639 0.16183617742515463 0.23391332737285317 0.699284897780268 -0.5796834707168174 -0.02295725263061841 0.11185681597119858
 0.16183617742515763 0.23391332737284976 0.1618361774251591 0.2339133273728849 -0.022957252630618416 0.11185681597119854 0.6992848977803271 -0.5796834707167239
40000000.0 0.6828462576100934 -0.5944422022635193 -0.01204947200986809 0.12456831424696042 0.16460160719987257 0.23493694400829793 0.1646016071998689 0.2349369440083218
 -0.01204947200986806 0.12456831424696038 0.6828462576101746 -0.5944422022634024 0.16460160719986572 0.23493694400832502 0.1646016071998706 0.2349369440083574
 0.16460160719987246 0.2349369440082978 0.1646016071998658 0.23493694400832513 0.6934838540721291 -0.5838494132304208 -0.022687068471902848 0.11397552521385969
 0.1646016071998688 0.23493694400832157 0.16460160719987044 0.2349369440083572 -0.02268706847190282 0.1139755252138596 0.6934838540721893 -0.5838494132303269
40500000.0 0.6768524431362336 -0.5985274017274265 -0.011564658315422943 0.12668763632771224 0.16735610758957953 0.2359198826998761 0.1673561075895758 0.23591988269990022
 -0.011564658315422948 0.1266876363277122 0.6768524431363165 -0.5985274017273093 0.1673561075895727 0.23591988269990374 0.16735610758957772 0.23591988269993638
 0.1673561075895793 0.23591988269987588 0.16735610758957273 0.23591988269990374 0.6876772930820702 -0.5879370451951975 -0.022389508261258153 0.11609727979548061
 0.1673561075895757 0.2359198826999001 0.16735610758957759 0.23591988269993622 -0.022389508261258143 0.11609727979548061 0.6876772930821312 -0.587937045195103
41000000.0 0.6708550245696371 -0.602531694128393 -0.011053243804872211 0.12880601581176834 0.17009910961760213 0.23686283915833148 0.17009910961759855 0.23686283915835613
 -0.011053243804872154 0.12880601581176832 0.6708550245697208 -0.6025316941282751 0.1700991096175954 0.23686283915835962 0.1700991096176006 0.23686283915839274
 0.170099109617602 0.2368628391583313 0.17009910961759545 0.23686283915835968 0.6818663617411059 -0.5919470524794718 -0.022064580976340113 0.11822137416284477
 0.17009910961759844 0.23686283915835593 0.17009910961760052 0.2368628391583926 -0.022064580976340106 0.11822137416284469 0.6818663617411679 -0.5919470524793766
41500000.0 0.6648551794372299 -0.6064558154678067 -0.010515318895735601 0.1309227943789548 0.17283006972923698 0.2377665105444454 0.1728300697292335 0.23776651054447048
 -0.01051531889573557 0.13092279437895474 0.6648551794373153 -0.6064558154676885 0.17283006972923035 0.23776651054447415 0.1728300697292358 0.23776651054450765
 0.1728300697292369 0.23776651054444528 0.17283006972923037 0.23776651054447415 0.6760521775190254 -0.5958801324478776 -0.02171231697753 0.12034711135902332
 0.17283006972923337 0.2377665105444703 0.1728300697292357 0.23776651054450748 -0.02171231697752999 0.12034711135902326 0.6760521775190883 -0.5958801324477822
42000000.0 0.6588540546473869 -0.6103005133586511 -0.009950993250748495 0.1330373239256797 0.17554846930166443 0.23863159471650536 0.17554846930166104 0.23863159471653095
 -0.009950993250748448 0.13303732392567968 0.6588540546474735 -0.6103005133585324 0.1755484693016578 0.23863159471653456 0.1755484693016635 0.23863159471656858
 0.17554846930166434 0.23863159471650527 0.1755484693016579 0.23863159471653464 0.6702358287356217 -0.5997369930298118 -0.02133276733898252 0.12247380359683799
 0.17554846930166096 0.23863159471653078 0.17554846930166346 0.2386315947165685 -0.0213327673389825 0.1224738035968379 0.6702358287356862 -0.599736993029716
42500000.0 0.6528527668091229 -0.6140665460747657 -0.009360395090660417 0.13514896704819254 0.17825381414075192 0.23945878951330668 0.17825381414074856 0.2394587895133327
 -0.009360395090660405 0.13514896704819254 0.652852766809211 -0.6140665460746465 0.17825381414074548 0.23945878951333655 0.17825381414075142 0.23945878951337096
 0.17825381414075184 0.23945878951330654 0.1782538141407455 0.23945878951333655 0.6644183748916187 -0.603518351820787 -0.020926003173155083 0.1246007727942111
 0.1782538141407485 0.23945878951333255 0.1782538141407513 0.23945878951337082 -0.02092600317315508 0.12460077279421106 0.664418374891684 -0.6035183518206907
43000000.0 0.6468524025709855 -0.6177546816330398 -0.008743670504069446 0.1372570974888321 0.1809456339665247 0.2402487920721242 0.1809456339665215 0.24024879207215064
 -0.008743670504069451 0.13725709748883208 0.6468524025710748 -0.6177546816329202 0.18094563396651828 0.24024879207215452 0.1809456339665245 0.24024879207218944
 0.18094563396652463 0.24024879207212413 0.18094563396651833 0.24024879207215455 0.6586008470175022 -0.6072249352163763 -0.02049211495058505 0.126727351072166
 0.18094563396652139 0.2402487920721505 0.18094563396652436 0.24024879207218924 -0.020492114950585047 0.12672735107216593 0.6586008470175687 -0.6072249352162796
43500000.0 0.6408540189778986 -0.6213656969082307 -0.008100982755927934 0.13936110054614512 0.1836234818889972 0.2410022981810636 0.183623481888994 0.24100229818109037
 -0.008100982755927919 0.1393611005461451 0.6408540189779891 -0.6213656969081107 0.18362348188899077 0.2410022981810944 0.18362348188899716 0.24100229818112961
 0.1836234818889971 0.24100229818106353 0.18362348188899083 0.24100229818109445 0.6527842480385622 -0.6108574775783886 -0.020031211816590552 0.12885288121630026
 0.18362348188899388 0.24100229818109023 0.18362348188899708 0.2410022981811295 -0.020031211816590556 0.12885288121630017 0.6527842480386294 -0.6108574775782913
44000000.0 0.6348586438442823 -0.624900376780038 -0.007432511596261344 0.14146037344979903 0.18628693387597156 0.24172000166514063 0.18628693387596848 0.24172000166516783
 -0.007432511596261311 0.14146037344979903 0.6348586438443744 -0.6249003767799178 0.18628693387596532 0.24172000166517202 0.18628693387597198 0.24172000166520763
 0.1862869338759714 0.2417200016651405 0.18628693387596537 0.24172000166517202 0.6469695531545008 -0.6144167204328435 -0.019543420906478943 0.13097671710260184
 0.18628693387596837 0.24172000166516766 0.1862869338759718 0.24172000166520746 -0.019543420906478932 0.1309767171026018 0.6469695531545692 -0.614416720432746
44500000.0 0.628867276141857 -0.6283595133120065 -0.006738452570552935 0.14355432570125887 0.18893558821432951 0.24240259380539542 0.18893558821432646 0.24240259380542298
 -0.0067384525705529285 0.1435543257012588 0.6288672761419503 -0.628359513311886 0.1889355882143234 0.24240259380542728 0.18893558821433024 0.24240259380546325
 0.18893558821432938 0.24240259380539525 0.18893558821432346 0.24240259380542728 0.6411577102320627 -0.6179034116992743 -0.01902888666075722 0.13309822408852368
 0.1889355882143264 0.24240259380542287 0.18893558821433015 0.24240259380546314 -0.01902888666075721 0.13309822408852362 0.6411577102321319 -0.6179034116991763
45000000.0 0.6228808864006005 -0.631743904961786 -0.00601901633315487 0.14564237938122898 0.1915690649662583 0.2430507627903004 0.19156906496625545 0.24305076279032847
 -0.00601901633315486 0.14564237938122893 0.622880886400695 -0.6317439049616651 0.19156906496625226 0.2430507627903328 0.19156906496625944 0.24305076279036925
 0.1915690649662582 0.24305076279030025 0.1915690649662523 0.24305076279033283 0.6353496402091969 -0.6213183049508291 -0.018487770141750272 0.13521677937026924
 0.1915690649662553 0.2430507627903283 0.19156906496625928 0.24305076279036908 -0.018487770141750282 0.13521677937026916 0.6353496402092674 -0.6213183049507308
45500000.0 0.6169004171214099 -0.6350543558222289 -0.005274427964998581 0.14772396942489363 0.1941870054217752 0.24366519319868996 0.1941870054217724 0.24366519319871832
 -0.0052744279649985645 0.1477239694248936 0.6169004171215058 -0.6350543558221079 0.19418700542176934 0.24366519319872287 0.19418700542177672 0.24366519319875968
 0.19418700542177506 0.24366519319868976 0.19418700542176942 0.2436651931987229 0.6295462375093567 -0.6246621587046132 -0.017920248352944423 0.13733177230727484
 0.1941870054217724 0.2436651931987183 0.19418700542177664 0.24366519319875957 -0.017920248352944444 0.13733177230727478 0.629546237509428 -0.6246621587045146
46000000.0 0.6109267831990896 -0.6382916748927698 -0.004504926296790041 0.14979854386601105 0.1967890715488304 0.24424656551340207 0.1967890715488278 0.244246565513431
 -0.004504926296790032 0.14979854386601102 0.6109267831991869 -0.6382916748926486 0.19678907154882472 0.2442465655134356 0.19678907154883235 0.24424656551347282
 0.1967890715488303 0.24424656551340196 0.19678907154882477 0.2442465655134356 0.6237483704645892 -0.6279357357416606 -0.017326513562288814 0.13944260471489867
 0.19678907154882766 0.24424656551343085 0.1967890715488322 0.24424656551347268 -0.017326513562288804 0.1394426047148986 0.6237483704646616 -0.6279357357415616
46500000.0 0.6049608723543589 -0.6414566753804991 -0.0037107632387911155 0.15186556405093787 0.199374945442196 0.24479555566480352 0.19937494544219342 0.2447955556648328
 -0.003710763238791096 0.15186556405093785 0.6049608723544576 -0.6414566753803771 0.1993749454421903 0.24479555566483757 0.19937494544219814 0.24479555566487513
 0.1993749454421958 0.24479555566480338 0.1993749454421903 0.24479555566483754 0.6179568817461709 -0.6311398024559157 -0.01670677263060231 0.1415486911263515
 0.1993749454421933 0.24479555566483271 0.199374945442198 0.244795555664875 -0.01670677263060232 0.14154869112635146 0.6179568817462444 -0.6311398024558164
47000000.0 0.5990035455736351 -0.6445501740303026 -0.0028922031182053824 0.1539245048236702 0.2019443287722645 0.2453128346033396 0.20194432877226204 0.24531283460336933
 -0.0028922031182053833 0.15392450482367018 0.5990035455737347 -0.6445501740301807 0.20194432877225899 0.2453128346033741 0.2019443287722671 0.24531283460341205
 0.2019443287722643 0.24531283460333944 0.20194432877225899 0.24531283460337408 0.612172588801584 -0.6342751282315515 -0.016061246346153215 0.14364945902491594
 0.20194432877226193 0.24531283460336917 0.2019443287722669 0.24531283460341186 -0.016061246346153208 0.14364945902491588 0.6121725888016583 -0.6342751282314519
47500000.0 0.5930556375554283 -0.6475729904834384 -0.0020495220251056916 0.1559748546830036 0.20449694223481754 0.24579906790024092 0.2044969422348152 0.24579906790027115
 -0.002049522025105672 0.15597485468300354 0.5930556375555296 -0.647572990483316 0.2044969422348122 0.24579906790027606 0.20449694223482062 0.24579906790031444
 0.20449694223481749 0.24579906790024086 0.2044969422348123 0.24579906790027617 0.6063962842967201 -0.6373424848479572 -0.015390168766396367 0.14574434904751923
 0.20449694223481524 0.2457990679002711 0.2044969422348206 0.2457990679003144 -0.015390168766396378 0.1457443490475192 0.6063962842967954 -0.6373424848478573
48000000.0 0.5871179571622409 -0.6505259466638651 -0.001183007167764655 0.15801611591291212 0.2070325250027403 0.2462549153755006 0.2070325250027382 0.24625491537553118
 -0.0011830071677646342 0.15801611591291206 0.5871179571623432 -0.6505259466637424 0.20703252500273506 0.24625491537553612 0.20703252500274386 0.24625491537557492
 0.20703252500274022 0.24625491537550045 0.2070325250027352 0.2462549153755362 0.6006287365622566 -0.6403426459116824 -0.014693786567779353 0.14783281516072622
 0.207032525002738 0.24625491537553093 0.20703252500274372 0.24625491537557478 -0.01469378656777935 0.14783281516072616 0.6006287365623326 -0.6403426459115822
48500000.0 0.5811912878769331 -0.653409866191659 -0.0002929562381724083 0.16004780468725543 0.2095508341805976 0.24668103075222614 0.20955083418059559 0.24668103075225714
 -0.00029295623817238565 0.1600478046872554 0.5811912878770367 -0.6534098661915362 0.2095508341805926 0.24668103075226228 0.20955083418060141 0.24668103075230133
 0.20955083418059753 0.2466810307522261 0.20955083418059264 0.24668103075226233 0.5948706900432119 -0.6432763863146348 -0.013972358404450129 0.1499143248102281
 0.2095508341805955 0.246681030752257 0.20955083418060133 0.24668103075230122 -0.01397235840445011 0.149914324810228 0.5948706900432889 -0.6432763863145342
49000000.0 0.5752763882625809 -0.6562255738228062 0.0006203232115454085 0.1620694511499149 0.21205164426291445 0.24707806133647053 0.2120516442629126 0.24707806133650195
 0.0006203232115454391 0.16206945114991483 0.5752763882626858 -0.6562255738226832 0.2120516442629095 0.24707806133650714 0.2120516442629189 0.24707806133654672
 0.21205164426291426 0.24707806133647037 0.21205164426290965 0.2470780613365072 0.5891228657507569 -0.6461444817177944 -0.013226154276629746 0.1519883590448997
 0.21205164426291248 0.2470780613365018 0.21205164426291873 0.24707806133654658 -0.013226154276629749 0.15198835904489963 0.5891228657508352 -0.6461444817176937
49500000.0 0.5693739924249045 -0.6589738949146762 0.0015565143811675107 0.16408059947145767 0.21453474659694108 0.24744664772163438 0.21453474659693939 0.24744664772166627
 0.0015565143811675053 0.16408059947145762 0.5693739924250105 -0.658973894914553 0.21453474659693633 0.24744664772167152 0.21453474659694585 0.24744664772171143
 0.21453474659694088 0.2474466477216343 0.2145347465969364 0.24744664772167155 0.5833859617154146 -0.6489477080597191 -0.012455454909341914 0.15405441261649766
 0.21453474659693922 0.24744664772166616 0.21453474659694582 0.24744664772171138 -0.012455454909341902 0.1540544126164976 0.583385961715494 -0.6489477080596182
50000000.0 0.5634848104764208 -0.6616556549164524 0.0025152918222971672 0.1660808078834192 0.21699994885061769 0.2477874235165423 0.2169999488506161 0.2477874235165745
 0.0025152918222972036 0.16608080788341914 0.5634848104765281 -0.661655654916329 0.21699994885061324 0.24778742351658 0.21699994885062288 0.24778742351662011
 0.21699994885061755 0.2477874235165421 0.21699994885061327 0.24778742351657998 0.5776606534408446 -0.6516868410891001 -0.011660551142125506 0.15611199405606352
 0.21699994885061594 0.2477874235165743 0.2169999488506228 0.24778742351662 -0.011660551142125504 0.1561119940560635 0.5776606534409245 -0.6516868410889988
50500000.0 0.5576095290015083 -0.6642716788838077 0.003496322025653398 0.16806964869128094 0.21944707448639517 0.24810101509628946 0.21944707448639378 0.24810101509632213
 0.0034963220256534295 0.16806964869128083 0.5576095290016168 -0.6642716788836841 0.2194470744863908 0.24810101509632765 0.21944707448640094 0.24810101509636825
 0.219447074486395 0.2481010150962893 0.21944707448639095 0.24810101509632773 0.5719475943574546 -0.6543626559206184 -0.010841743330291915 0.15816062572808814
 0.21944707448639364 0.24810101509632193 0.2194470744864008 0.24810101509636814 -0.010841743330291913 0.15816062572808803 0.5719475943575356 -0.6543626559205168
51000000.0 0.5517488115216499 -0.6668227910170988 0.004499263995279784 0.17004670826720997 0.22187596224151088 0.248388041374971 0.22187596224150954 0.24838804137500403
 0.004499263995279805 0.17004670826720986 0.5517488115217596 -0.6668227910169753 0.22187596224150674 0.2483880413750097 0.22187596224151707 0.24838804137505063
 0.22187596224151068 0.2483880413749708 0.22187596224150677 0.2483880413750097 0.5662474162751576 -0.6569759266133759 -0.009999340758227124 0.1601998438634831
 0.22187596224150932 0.24838804137500384 0.22187596224151693 0.24838804137505052 -0.009999340758227128 0.16019984386348304 0.5662474162752397 -0.6569759266132739
51500000.0 0.5459032989601507 -0.6693098142223601 0.005523769809280637 0.172011587023608 0.22428646561525956 0.2486491135994029 0.2242864656152585 0.24864911359943637
 0.005523769809280651 0.17201158702360794 0.5459032989602616 -0.6693098142222363 0.22428646561525561 0.24864911359944217 0.22428646561526625 0.2486491135994834
 0.22428646561525933 0.24864911359940278 0.2242864656152557 0.2486491135994422 0.5605607298346126 -0.659527425771145 -0.009133661065180636 0.16222919857238952
 0.22428646561525845 0.24864911359943628 0.2242864656152662 0.24864911359948336 -0.009133661065180642 0.1622291985723895 0.5605607298346957 -0.6595274257710434
52000000.0 0.5400736101056964 -0.6717335696943768 0.006569485166746898 0.1739638993685019 0.22667845236375314 0.24888483516296472 0.22667845236375217 0.2488848351629986
 0.006569485166746908 0.17396389936850187 0.5400736101058086 -0.6717335696942528 0.22667845236374937 0.24888483516300447 0.22667845236376036 0.24888483516304627
 0.22667845236375297 0.24888483516296456 0.2266784523637494 0.24888483516300444 0.5548881249563712 -0.6620179241637184 -0.008245029683927109 0.16424825383783992
 0.2266784523637521 0.24888483516299842 0.22667845236376022 0.24888483516304602 -0.008245029683927133 0.16424825383783984 0.5548881249564552 -0.6620179241636163
52500000.0 0.5342603420741514 -0.6740948765211249 0.007636049920587599 0.1759032736437862 0.2290518040026046 0.249095801438697 0.22905180400260391 0.2490958014387313
 0.007636049920587644 0.17590327364378613 0.5342603420742648 -0.6740948765210008 0.22905180400260106 0.24909580143873722 0.22905180400261244 0.24909580143877932
 0.2290518040026045 0.24909580143869686 0.2290518040026011 0.24909580143873722 0.549230171287374 -0.6644481903686135 -0.007333779292633952 0.1662565874912712
 0.22905180400260378 0.2490958014387311 0.22905180400261232 0.2490958014387792 -0.007333779292633949 0.16625658749127112 0.5492301712874589 -0.6644481903685113
53000000.0 0.5284640707680507 -0.6763945513088666 0.008723098596032217 0.1778293520473088 0.23140641531793218 0.24928259963080712 0.23140641531793166 0.24928259963084173
 0.008723098596032229 0.1778293520473087 0.5284640707681655 -0.6763945513087424 0.23140641531792883 0.24928259963084787 0.23140641531794046 0.24928259963089022
 0.231406415317932 0.24928259963080687 0.2314064153179289 0.2492825996308479 0.5435874186443013 -0.666818990432429 -0.006400249280217421 0.16825379117086753
 0.23140641531793144 0.2492825996308415 0.23140641531794032 0.2492825996308901 -0.006400249280217436 0.1682537911708675 0.543587418644387 -0.6668189904323265
53500000.0 0.5226853513332782 -0.6786334078272 0.009830260894616982 0.17974179053976538 0.23374219388602566 0.2494458086437458 0.23374219388602538 0.24944580864378096
 0.009830260894616968 0.17974179053976533 0.5226853513333938 -0.6786334078270756 0.23374219388602252 0.24944580864378707 0.23374219388603454 0.24944580864382987
 0.23374219388602552 0.24944580864374574 0.2337421938860226 0.24944580864378715 0.5379603974533183 -0.6691310875511284 -0.005444785225422496 0.1702394702636904
 0.2337421938860252 0.24944580864378083 0.23374219388603437 0.2494458086438298 -0.005444785225422511 0.17023947026369032 0.5379603974534051 -0.6691310875510258
54000000.0 0.516924718612469 -0.6808122566733706 0.010957162183511473 0.1816402587373483 0.23605905960198273 0.2495859989680403 0.2360590596019825 0.2495859989680758
 0.010957162183511495 0.1816402587373482 0.5169247186125854 -0.6808122566732464 0.23605905960197981 0.2495859989680819 0.23605905960199206 0.24958599896812506
 0.23605905960198256 0.2495859989680401 0.23605905960197998 0.24958599896808203 0.5323496191857974 -0.6713852417685587 -0.004467738389816641 0.17221324383253264
 0.23605905960198234 0.2495859989680756 0.23605905960199194 0.24958599896812492 -0.004467738389816662 0.1722132438325326 0.5323496191858853 -0.6713852417684558
54500000.0 0.5111826875947125 -0.6829319049551643 0.012103423970084385 0.18352443979106609 0.23835694421757372 0.2497037325820787 0.2383569442175737 0.2497037325821146
 0.012103423970084431 0.183524439791066 0.5111826875948303 -0.68293190495504 0.238356944217571 0.24970373258212086 0.23835694421758355 0.24970373258216433
 0.23835694421757359 0.24970373258207854 0.23835694421757114 0.24970373258212092 0.526755576789644 -0.6735822096925103 -0.0034694652248462884 0.17417474452840803
 0.23835694421757359 0.24970373258211442 0.23835694421758344 0.24970373258216422 -0.003469465224846306 0.174174744528408 0.5267555767897326 -0.6735822096924071
55000000.0 0.5054597538611694 -0.6849931559917067 0.01326866436164615 0.18539403025362908 0.24063579088856402 0.24979956286906893 0.24063579088856427 0.24979956286910532
 0.013268664361646162 0.18539403025362908 0.5054597538612884 -0.6849931559915823 0.24063579088856155 0.24979956286911165 0.24063579088857456 0.24979956286915553
 0.24063579088856377 0.24979956286906876 0.24063579088856157 0.24979956286911165 0.5211787451158785 -0.6757227442276496 -0.0024503268930623555 0.17612361848956784
 0.2406357908885641 0.24979956286910512 0.2406357908885742 0.2497995628691552 -0.002450326893062372 0.1761236184895677 0.5211787451159681 -0.6757227442275464
55500000.0 0.4997563940262455 -0.6869968090315122 0.014452498510341812 0.1872487399347644 0.2428955537316776 0.24987403454840426 0.242895553731678 0.24987403454844098
 0.014452498510341843 0.1872487399347643 0.4997563940263655 -0.6869968090313876 0.24289555373167543 0.2498740345484475 0.24289555373168856 0.24987403454849158
 0.24289555373167743 0.2498740345484042 0.24289555373167554 0.24987403454844764 0.5156195813401757 -0.6778075943246564 -0.0014106888035878323 0.1780595252279047
 0.24289555373167784 0.24987403454844084 0.24289555373168845 0.2498740345484915 -0.0014106888035878443 0.17805952522790458 0.5156195813402659 -0.6778075943245531
56000000.0 0.4940730661740175 -0.6889436589871346 0.01565453904320274 0.18908829174580233 0.24513619739136064 0.249927683620697 0.24513619739136125 0.2499276836207341
 0.01565453904320276 0.1890882917458023 0.49407306617413843 -0.6889436589870102 0.24513619739135875 0.24992768362074066 0.24513619739137218 0.2499276836207851
 0.2451361973913605 0.24992768362069684 0.2451361973913588 0.2499276836207407 0.5100785253790832 -0.6798375047449234 -0.00035092016186209155 0.17998213750358694
 0.24513619739136117 0.249927683620734 0.24513619739137207 0.249927683620785 -0.00035092016186207513 0.17998213750358694 0.5100785253791744 -0.6798375047448199
56500000.0 0.488410210289612 -0.6908344961857911 0.01687439647739753 0.19091242153434515 0.24735769661646542 0.24996103732575434 0.24735769661646623 0.24996103732579178
 0.016874396477397562 0.19091242153434512 0.48841021028973464 -0.6908344961856664 0.2473576966164638 0.2499610373257986 0.2473576966164776 0.2499610373258433
 0.24735769661646528 0.24996103732575417 0.24735769661646387 0.2499610373257986 0.5045560003006759 -0.6818132158401828 0.0007286064663344794 0.18189114118873292
 0.24735769661646612 0.2499610373257916 0.24735769661647738 0.24996103732584316 0.0007286064663344808 0.1818911411887328 0.504556000300768 -0.6818132158400794
57000000.0 0.4827682486852913 -0.6926701061353343 0.018111679620750148 0.19272087790980125 0.24956003584694922 0.2499746141127984 0.2495600358469502 0.24997461411283628
 0.018111679620750165 0.19272087790980116 0.4827682486854145 -0.6926701061352097 0.24956003584694775 0.24997461411284308 0.2495600358469618 0.24997461411288807
 0.24956003584694894 0.24997461411279825 0.24956003584694778 0.24997461411284305 0.4990524127294398 -0.6837354633464506 0.001827515576601978 0.18378623512091335
 0.24956003584695005 0.24997461411283617 0.24956003584696168 0.249974614112888 0.0018275155766019609 0.1837862351209133 0.49905241272953293 -0.6837354633463468
57500000.0 0.47714758642101096 -0.694451269304975 0.0193659959576221 0.19451342206054306 0.2517432088106528 0.2499689236222484 0.25174320881065415 0.24996892362228665
 0.019365995957622093 0.19451342206054298 0.4771475864211353 -0.6944512693048507 0.2517432088106516 0.24996892362229348 0.2517432088106661 0.24996892362233883
 0.25174320881065265 0.24996892362224832 0.25174320881065176 0.24996892362229353 0.4935681532451899 -0.6856049781916794 0.002945429133443942 0.18566713094724316
 0.25174320881065393 0.24996892362228654 0.2517432088106659 0.24996892362233866 0.0029454291334439107 0.18566713094724302 0.4935681532452836 -0.6856049781915756
58000000.0 0.4715486117192572 -0.6961787609201634 0.020636952020280465 0.19628982756341568 0.25390721813020006 0.2499444666784068 0.2539072181302015 0.24994446667844544
 0.020636952020280486 0.19628982756341556 0.4715486117193827 -0.6961787609200389 0.25390721813019906 0.24994446667845244 0.2539072181302139 0.24994446667849818
 0.2539072181301998 0.24994446667840667 0.2539072181301992 0.24994446667845246 0.4881035967758658 -0.6874224863165457 0.004081966963672525 0.1875335529597933
 0.2539072181302013 0.2499444666784453 0.2539072181302137 0.24994446667849798 0.004081966963672481 0.18753355295979324 0.4881035967759604 -0.6874224863164415
58500000.0 0.46597169637397684 -0.6978533507710576 0.021924153745895625 0.19804988018629655 0.256052074940032 0.2499017352924139 0.25605207494003374 0.24990173529245296
 0.02192415374589561 0.1980498801862965 0.4659716963741033 -0.6978533507709331 0.25605207494003135 0.24990173529245996 0.2560520749400465 0.24990173529250595
 0.25605207494003185 0.24990173529241383 0.25605207494003146 0.24990173529246001 0.4826591029840716 -0.6891887085077988 0.005236747135801241 0.18938523792303344
 0.2560520749400336 0.24990173529245285 0.2560520749400464 0.24990173529250587 0.0052367471358012296 0.18938523792303336 0.4826591029841674 -0.689188708507695
59000000.0 0.4604171961534553 -0.6994758030340208 0.02322720681933391 0.19979337768437985 0.2581777985135732 0.2498412126748543 0.2581777985135751 0.24984121267489365
 0.023227206819333945 0.1997933776843798 0.46041719615358295 -0.6994758030338961 0.2581777985135728 0.2498412126749008 0.25817779851358813 0.24984121267494708
 0.258177798513573 0.24984121267485412 0.2581777985135728 0.2498412126749008 0.4772350166472375 -0.6909043602436278 0.00640938632555219 0.19122193489398262
 0.258177798513575 0.24984121267489356 0.258177798513588 0.249841212674947 0.006409386325552185 0.19122193489398256 0.4772350166473342 -0.6909043602435238
59500000.0 0.4548854511970082 -0.7010468761056059 0.024545717001929944 0.20152012959082843 0.26028441590049817 0.24976337325742287 0.26028441590050033 0.24976337325746273
 0.024545717001929954 0.20152012959082838 0.4548854511971367 -0.7010468761054813 0.2602844159004981 0.24976337325746992 0.2602844159005139 0.24976337325751657
 0.26028441590049806 0.24976337325742287 0.2602844159004982 0.24976337325747 0.47183166803131404 -0.6925701515505052 0.007599500167624498 0.1930434050357234
 0.2602844159005002 0.24976337325746262 0.26028441590051377 0.24976337325751646 0.0075995001676245 0.1930434050357233 0.4718316680314114 -0.692570151550401
60000000.0 0.44937678640537354 -0.7025673224485032 0.025879290446440505 0.20322995700241314 0.26237196157405973 0.24966868272307993 0.2623719615740622 0.24966868272312004
 0.025879290446440512 0.20322995700241303 0.4493767864055034 -0.7025673224483787 0.26237196157405995 0.24966868272312742 0.26237196157407605 0.24966868272317422
 0.2623719615740596 0.24966868272307982 0.26237196157406006 0.24966868272312748 0.4664493732579242 -0.6941867868710012 0.008806703593890436 0.19484942142490666
 0.262371961574062 0.24966868272311984 0.2623719615740759 0.2496686827231741 0.008806703593890462 0.1948494214249066 0.4664493732580222 -0.6941867868708972
60500000.0 0.4438915118247173 -0.7040378884489386 0.027227533998397207 0.2049226923607272 0.2644404770884091 0.24955759804414096 0.2644404770884116 0.24955759804418146
 0.02722753399839722 0.2049226923607271 0.4438915118248479 -0.704037888448814 0.2644404770884095 0.24955759804418878 0.2644404770884259 0.249557598044236
 0.2644404770884089 0.2495575980441408 0.2644404770884096 0.2495575980441888 0.4610884346649131 -0.6957549649420642 0.010030611158201693 0.19663976885384843
 0.26444047708841145 0.24955759804418126 0.2644404770884258 0.24955759804423583 0.010030611158201733 0.19663976885384837 0.46108843466501204 -0.6957549649419598
61000000.0 0.43842992302417183 -0.7054593142850293 0.028590055484089317 0.206598179229543 0.26649001074583506 0.24943056752777903 0.266490010745838 0.24943056752781992
 0.02859005548408934 0.20659817922954296 0.43842992302430367 -0.705459314284905 0.26649001074583595 0.24943056752782744 0.26649001074585266 0.2494305675278749
 0.26649001074583495 0.24943056752777892 0.2664900107458359 0.24943056752782744 0.45574914116025916 -0.6972753786832858 0.011270837348002499 0.1984142436277949
 0.2664900107458379 0.2494305675278198 0.26649001074585255 0.2494305675278747 0.011270837348002504 0.1984142436277948 0.4557491411603589 -0.6972753786831816
61500000.0 0.4329923014668549 -0.7068323338056223 0.029966463985421254 0.20825627206884398 0.26852061727382703 0.2492880308684255 0.26852061727383025 0.24928803086846682
 0.029966463985421257 0.20825627206884392 0.43299230146698764 -0.7068323338054979 0.2685206172738281 0.24928803086847434 0.26852061727384524 0.24928803086852205
 0.2685206172738268 0.2492880308684254 0.2685206172738282 0.24928803086847434 0.4504317685693151 -0.6987487150946875 0.012526996882961364 0.20017265335790485
 0.2685206172738301 0.24928803086846663 0.268520617273845 0.24928803086852194 0.01252699688296136 0.20017265335790477 0.450431768569416 -0.6987487150945833
62000000.0 0.4275789148743212 -0.7081576744191457 0.03135637010189877 0.20989683600604794 0.2705323575118546 0.24913041920658566 0.27053235751185806 0.24913041920662723
 0.031356370101898776 0.20989683600604792 0.42757891487445504 -0.7081576744190212 0.27053235751185606 0.249130419206635 0.27053235751187354 0.249130419206683
 0.27053235751185456 0.24913041920658563 0.27053235751185617 0.2491304192066351 0.4451365799753749 -0.7001756551635792 0.01379870500084539 0.20191481675047707
 0.270532357511858 0.24913041920662718 0.2705323575118733 0.24913041920668288 0.013798705000845376 0.20191481675047696 0.44513657997547645 -0.7001756551634749
62500000.0 0.4221900175844201 -0.7094360569920332 0.03275938620000936 0.21151974660490488 0.27252529810774945 0.2489581551936016 0.2725252981077531 0.24895815519364353
 0.03275938620000933 0.2115197466049048 0.4221900175845549 -0.7094360569919088 0.27252529810775117 0.24895815519365136 0.27252529810776904 0.24895815519369968
 0.27252529810774934 0.24895815519360148 0.2725252981077512 0.2489581551936514 0.43986382605356045 -0.7015568737800544 0.015085577730869439 0.20364056339292133
 0.2725252981077529 0.24895815519364337 0.27252529810776877 0.24895815519369954 0.015085577730869425 0.20364056339292122 0.43986382605366275 -0.7015568737799498
63000000.0 0.41682585090254365 -0.7106681957562866 0.03417512665026942 0.21312488963253284 0.27449951122355704 0.24877165306191493 0.2744995112235609 0.2487716530619573
 0.034175126650269436 0.21312488963253273 0.4168258509026795 -0.7106681957561627 0.27449951122355903 0.24877165306196508 0.27449951122357724 0.24877165306201363
 0.27449951122355687 0.2487716530619148 0.27449951122355915 0.24877165306196514 0.4346137453980475 -0.7028930396607105 0.016387232154766028 0.20534973353695166
 0.2744995112235607 0.24877165306195703 0.274499511223577 0.2487716530620135 0.016387232154765986 0.20534973353695157 0.4346137453981505 -0.7028930396606059
63500000.0 0.4114866434462595 -0.71185479822576 0.03560320805221802 0.21471216082502934 0.2764550742507244 0.2485713187004037 0.2764550742507285 0.24857131870044646
 0.035603208052217984 0.2147121608250293 0.4114866434463961 -0.7118547982256358 0.2764550742507267 0.24857131870045437 0.27645507425074517 0.24857131870050325
 0.2764550742507242 0.2485713187004037 0.27645507425072674 0.24857131870045437 0.429386564842652 -0.7041848152801906 0.017703286655825882 0.20704217787945528
 0.2764550742507284 0.24857131870044635 0.276455074250745 0.2485713187005031 0.017703286655825903 0.20704217787945517 0.429386564842756 -0.704184815280086
64000000.0 0.4061726114833356 -0.7129965651207607 0.03704324944764326 0.21628146565207126 0.2783920695344731 0.2483575497343839 0.27839206953447765 0.24835754973442703
 0.03704324944764323 0.21628146565207115 0.4061726114834734 -0.712996565120637 0.27839206953447565 0.24835754973443494 0.27839206953449475 0.24835754973448415
 0.27839206953447293 0.24835754973438381 0.27839206953447587 0.24835754973443502 0.4241824997748099 -0.7054328568101605 0.019033361156169257 0.20871775734146622
 0.27839206953447737 0.24835754973442678 0.2783920695344945 0.24835754973448396 0.01903336115616921 0.20871775734146608 0.4241824997749148 -0.7054328568100562
64500000.0 0.40088395926317416 -0.71409419030059 0.03849487252233335 0.21783271908089605 0.2803105841072082 0.24813073560988647 0.28031058410721293 0.24813073560992993
 0.038494872522333363 0.217832719080896 0.40088395926331294 -0.7140941903004662 0.2803105841072112 0.2481307356099379 0.2803105841072305 0.24813073560998733
 0.2803105841072081 0.24813073560988638 0.2803105841072113 0.24813073560993795 0.41900175444299537 -0.7066378140653534 0.020377077342512397 0.21037634284565485
 0.2803105841072128 0.24813073560992974 0.28031058410723037 0.2481307356099872 0.020377077342512383 0.21037634284565476 0.4190017544431011 -0.7066378140652491
65000000.0 0.39562087934168105 -0.7151483607036336 0.039957701796644825 0.21936584534003328 0.2822107094307987 0.24789125768184042 0.2822107094308035 0.24789125768188416
 0.03995770179664483 0.21936584534003328 0.39562087934182066 -0.71514836070351 0.2822107094308019 0.24789125768189232 0.2822107094308215 0.247891257681942
 0.2822107094307984 0.2478912576818403 0.2822107094308019 0.24789125768189224 0.413844522257627 -0.7078003304563228 0.021734058880698928 0.2120178150927175
 0.28221070943080334 0.247891257681884 0.2822107094308212 0.24789125768194178 0.021734058880698903 0.21201781509271744 0.41384452225773355 -0.7078003304562182
65500000.0 0.39038355289960347 -0.7161597562946629 0.04143136480518819 0.22088077768313244 0.28409254114756516 0.24763948930580576 0.2840925411475703 0.24763948930584978
 0.04143136480518822 0.22088077768313238 0.3903835528997442 -0.7161597562945391 0.2840925411475687 0.24763948930585808 0.28409254114758875 0.2476394893059079
 0.2840925411475651 0.24763948930580576 0.28409254114756893 0.24763948930585822 0.40871098608552053 -0.7089210429485674 0.023103931619271316 0.21364206433703242
 0.28409254114757027 0.24763948930584967 0.2840925411475886 0.24763948930590787 0.023103931619271302 0.21364206433703237 0.4087109860856275 -0.7089210429484629
66000000.0 0.3851721500543812 -0.7171290500189795 0.04291549226592826 0.2223774581532157 0.2859561788398057 0.24737579593292322 0.2859561788398112 0.24737579593296766
 0.04291549226592827 0.2223774581532156 0.3851721500545227 -0.7171290500188562 0.28595617883980967 0.2473757959329759 0.28595617883983 0.24737579593302605
 0.28595617883980556 0.24737579593292308 0.2859561788398097 0.24737579593297593 0.40360131853795206 -0.7100005820276967 0.024486323782357596 0.21524899016192797
 0.285956178839811 0.24737579593296743 0.28595617883982977 0.24737579593302592 0.024486323782357603 0.21524899016192792 0.4036013185380601 -0.7100005820275923
66500000.0 0.3799868301655556 -0.7180569077630942 0.04440971823900291 0.22385583734766165 0.2878017257976805 0.24710053520775832 0.2878017257976862 0.24710053520780303
 0.044409718239002964 0.22385583734766154 0.37998683016569823 -0.718056907762971 0.2878017257976848 0.2471005352078114 0.28780172579770547 0.24710053520786174
 0.28780172579768026 0.24710053520775813 0.2878017257976849 0.24710053520781142 0.3985156822524039 -0.7110395716703249 0.02588086615215493 0.21683850125488716
 0.28780172579768604 0.24710053520780279 0.2878017257977052 0.2471005352078616 0.025880866152154926 0.21683850125488707 0.3985156822525126 -0.7110395716702205
67000000.0 0.37482774213379655 -0.7189439883215994 0.045913680275559365 0.22531587418420662 0.2896292887952815 0.24681405706873893 0.2896292887952876 0.2468140570687841
 0.045913680275559365 0.22531587418420657 0.37482774213393993 -0.7189439883214763 0.2896292887952861 0.24681405706879256 0.28962928879530714 0.24681405706884318
 0.2896292887952812 0.24681405706873885 0.28962928879528627 0.2468140570687926 0.3934542301680669 -0.7120386293203931 0.027287192241289233 0.21841051518299506
 0.2896292887952874 0.24681405706878384 0.28962928879530686 0.24681405706884302 0.027287192241289195 0.2184105151829949 0.3934542301681764 -0.7120386293202886
67500000.0 0.3696950246936036 -0.7197909433699414 0.04742701955690976 0.22675753566823148 0.2914389778747023 0.24651670385089808 0.29143897787470846 0.2465167038509434
 0.047427019556909804 0.2267575356682314 0.36969502469374793 -0.7197909433698186 0.2914389778747072 0.24651670385095192 0.2914389778747285 0.2465167038510028
 0.291438977874702 0.2465167038508979 0.29143897787470735 0.246516703850952 0.38841710579517985 -0.712998365870631 0.028704938455333576 0.2199649581689159
 0.2914389778747084 0.2465167038509433 0.29143897787472833 0.24651670385100274 0.02870493845533355 0.21996495816891587 0.38841710579529004 -0.7129983658705265
68000000.0 0.3645888066997522 -0.7205984174427945 0.04894938102430777 0.22818079666158594 0.2932309061379285 0.24620881039064804 0.293230906137935 0.24620881039069373
 0.04894938102430779 0.22818079666158583 0.36458880669989757 -0.7205984174426717 0.29323090613793373 0.24620881039070236 0.29323090613795544 0.2462088103907534
 0.29323090613792824 0.2462088103906479 0.2932309061379338 0.24620881039070233 0.3834044434782921 -0.7139193856488854 0.030133744245767764 0.22150176486767142
 0.2932309061379349 0.24620881039069356 0.29323090613795527 0.24620881039075332 0.030133744245767733 0.22150176486767137 0.38340444347840313 -0.7139193856487809
68500000.0 0.3595092074075505 -0.7213670479177533 0.05048041349964345 0.22958563965318032 0.29500518954636085 0.24589070413233086 0.2950051895463677 0.24589070413237685
 0.050480413499643446 0.22958563965318016 0.3595092074076967 -0.7213670479176307 0.2950051895463665 0.24589070413238556 0.2950051895463885 0.2458907041324369
 0.2950051895463605 0.24589070413233063 0.2950051895463665 0.2458907041323856 0.3784163686535348 -0.7148022864090471 0.03157325225365915 0.22302087814446872
 0.29500518954636745 0.24589070413237668 0.2950051895463883 0.24589070413243683 0.03157325225365915 0.22302087814446864 0.3784163686536464 -0.7148022864089425
69000000.0 0.3544563367469843 -0.7220974650040723 0.05201976979735427 0.2309720545315634 0.2967619467277881 0.24556270523629928 0.2967619467277953 0.24556270523634566
 0.052019769797354266 0.23097205453156328 0.35445633674713095 -0.7220974650039497 0.29676194672779405 0.24556270523635437 0.29676194672781653 0.24556270523640591
 0.2967619467277879 0.24556270523629922 0.29676194672779405 0.24556270523635446 0.3734529980999913 -0.7156476593263316 0.033023108444347096 0.22452224885381744
 0.2967619467277951 0.2455627052363455 0.2967619467278163 0.2455627052364058 0.03302310844434704 0.22452224885381733 0.37345299810010363 -0.7156476593262273
69500000.0 0.34943029559082556 -0.7227902917361915 0.05356710682784586 0.2323400383596839 0.29850129879062115 0.24522512668829918 0.2985012987906286 0.24522512668834587
 0.05356710682784583 0.23234003835968384 0.34943029559097327 -0.722790291736069 0.29850129879062753 0.24522512668835472 0.2985012987906503 0.24522512668840638
 0.29850129879062093 0.2452251266882991 0.29850129879062753 0.24522512668835475 0.3685144401852631 -0.7164560889966652 0.03448296223340804 0.2260058356201526
 0.2985012987906284 0.24522512668834567 0.29850129879065 0.24522512668840624 0.03448296223340803 0.2260058356201525 0.36851444018537627 -0.716456088996561
70000000.0 0.34443117601678963 -0.7234461439718012 0.05512208569271451 0.23368959515202123 0.30022336914520437 0.24487827440993618 0.300223369145212 0.24487827440998308
 0.055122085692714505 0.23368959515202117 0.34443117601693807 -0.723446143971679 0.30022336914521097 0.24487827440999196 0.30022336914523406 0.24487827441004392
 0.3002233691452041 0.2448782744099361 0.30022336914521114 0.24487827440999205 0.3636007951053235 -0.7172281534399544 0.035952466604180285 0.22747160462016927
 0.30022336914521186 0.24487827440998294 0.3002233691452339 0.24487827441004378 0.0359524666041803 0.2274716046201692 0.36360079510543736 -0.7172281534398501
70500000.0 0.339459061563818 -0.7240656303942051 0.05668437177205989 0.23502073565425452 0.3019282833320166 0.24452244737002193 0.3019282833320247 0.24452244737006926
 0.05668437177205989 0.2350207356542545 0.3394590615639675 -0.7240656303940831 0.3019282833320237 0.24452244737007814 0.30192828333204724 0.24452244737013043
 0.30192828333201643 0.24452244737002182 0.3019282833320238 0.24452244737007817 0.35871215511875626 -0.7179644241070127 0.03743127821712133 0.22891952936705665
 0.3019282833320246 0.24452244737006912 0.301928283332047 0.24452244737013024 0.037431278217121305 0.22891952936705653 0.358712155118871 -0.7179644241069082
71000000.0 0.33451402748258174 -0.7246493525187523 0.05825363480417024 0.23633347712562636 0.3036161688565792 0.24415793769661023 0.30361616885658754 0.2441579376966579
 0.05825363480417023 0.23633347712562633 0.3345140274827319 -0.7246493525186303 0.3036161688565867 0.24415793769666685 0.3036161688566105 0.24415793769671926
 0.303616168856579 0.24415793769661012 0.3036161688565867 0.24415793769666683 0.3538486047754819 -0.7186654658899398 0.03891905751126946 0.23034959049680861
 0.3036161688565874 0.24415793769665767 0.3036161688566103 0.2441579376967191 0.03891905751126949 0.2303495904968085 0.35384860477559726 -0.7186654658898356
71500000.0 0.3295961409802815 -0.7251979047031187 0.05982954895786256 0.23762784312414048 0.3052871550308826 0.24378503078953712 0.30528715503089116 0.24378503078958502
 0.0598295489578626 0.23762784312414045 0.32959614098043255 -0.7251979047029968 0.30528715503089027 0.24378503078959401 0.3052871550309145 0.2437850307896467
 0.30528715503088244 0.24378503078953698 0.30528715503089043 0.24378503078959401 0.3490102211400637 -0.7193318371357533 0.04041546879808008 0.2317617755567696
 0.30528715503089104 0.24378503078958486 0.30528715503091425 0.2437850307896465 0.04041546879808009 0.23176177555676952 0.34901022114017993 -0.719331837135649
72000000.0 0.32470546145984763 -0.7257118741612312 0.061411792897752226 0.23890386329472585 0.30694137282115413 0.24340400543330118 0.30694137282116307 0.2434040054333492
 0.06141179289775223 0.23890386329472577 0.3247054614599996 -0.7257118741611095 0.30694137282116224 0.2434040054333585 0.3069413728211867 0.24340400543341112
 0.306941372821154 0.24340400543330112 0.3069413728211624 0.24340400543335852 0.344197074009701 -0.7199640896630781 0.04192018034789868 0.23315607879656758
 0.30694137282116285 0.24340400543334914 0.30694137282118666 0.2434040054334111 0.041920180347898614 0.2331560787965675 0.34419707400981747 -0.719964089662974
72500000.0 0.31984204075361744 -0.7261918409806277 0.06300004984272307 0.24016157316048137 0.3085789547017834 0.24301513391012242 0.30857895470179253 0.24301513391017082
 0.06300004984272306 0.24016157316048134 0.3198420407537703 -0.7261918409805065 0.308578954701792 0.24301513391018018 0.3085789547018168 0.2430151339102331
 0.3085789547017832 0.24301513391012228 0.308578954701792 0.24301513391018015 0.3394092261270064 -0.7205627687817198 0.043432864469334 0.23453250096156777
 0.3085789547017924 0.24301513391017068 0.3085789547018166 0.2430151339102329 0.043432864469333955 0.23453250096156764 0.3394092261271236 -0.7205627687816157
73000000.0 0.31500592335159233 -0.726638378143068 0.06459400761786466 0.24140101391710603 0.31020003451522454 0.24261868211303086 0.3102000345152341 0.24261868211307955
 0.06459400761786462 0.24140101391710592 0.3150059233517461 -0.7266383781429469 0.31020003451523337 0.2426186821130889 0.3102000345152587 0.24261868211314208
 0.31020003451522427 0.2426186821130307 0.31020003451523354 0.24261868211308893 0.33464673338766987 -0.7211284133149389 0.04495319758178669 0.23589104908897154
 0.31020003451523387 0.24261868211307946 0.3102000345152585 0.242618682113142 0.04495319758178667 0.23589104908897138 0.334646733387788 -0.721128413314835
73500000.0 0.3101971466243599 -0.7270520515482034 0.06619335870013805 0.24262223223061033 0.3118047473377037 0.24221490965884712 0.3118047473377134 0.24221490965889617
 0.06619335870013805 0.24262223223061025 0.31019714662451414 -0.7270520515480825 0.311804747337713 0.2422149096589055 0.31180474733773844 0.24221490965895878
 0.3118047473377035 0.242214909658847 0.3118047473377131 0.2422149096589055 0.32990964504310893 -0.7216615556242745 0.04648086028138847 0.23723173630667566
 0.31180474733771324 0.24221490965889603 0.31180474733773833 0.24221490965895875 0.046480860281388425 0.2372317363066756 0.3299096450432278 -0.7216615556241704
74000000.0 0.305415741040779 -0.7274334200401368 0.06779780025802422 0.24382528003838916 0.31339322935055036 0.241804070000925 0.31339322935056046 0.24180407000097434
 0.0677978002580242 0.24382528003838905 0.3054157410409343 -0.7274334200400159 0.31339322935056 0.24180407000098375 0.31339322935058594 0.24180407000103726
 0.3133932293505502 0.24180407000092485 0.31339322935056013 0.24180407000098378 0.3251980038982066 -0.7221627216367438 0.04801553740059629 0.23855458163499046
 0.31339322935056024 0.24180407000097415 0.3133932293505859 0.24180407000103724 0.048015537400596275 0.23855458163499044 0.32519800389832604 -0.72216272163664
74500000.0 0.3006617303805188 -0.7277830354367001 0.06940703418540829 0.24501021435373227 0.314965617716988 0.24138641054153584 0.3149656177169984 0.24138641054158538
 0.06940703418540835 0.2450102143537322 0.30066173038067484 -0.7277830354365796 0.31496561771699805 0.24138641054159482 0.31496561771702436 0.24138641054164853
 0.31496561771698783 0.24138641054153573 0.3149656177169981 0.24138641054159485 0.32051184650423753 -0.7226324308742859 0.04955691806168904 0.2398596097913124
 0.3149656177169982 0.24138641054158524 0.3149656177170241 0.24138641054164842 0.049556918061689 0.2398596097913123 0.32051184650435754 -0.7226324308741822
75000000.0 0.29593513194154564 -0.7281014425612903 0.07102076712994108 0.24617709707383248 0.3165220504642076 0.24096217274378137 0.3165220504642184 0.24096217274383122
 0.07102076712994107 0.24617709707383242 0.29593513194170246 -0.7281014425611698 0.31652205046421794 0.2409621727438408 0.3165220504642447 0.24096217274389475
 0.3165220504642075 0.24096217274378134 0.31652205046421805 0.24096217274384088 0.3158512033470839 -0.7230711964852929 0.05110469572440237 0.24114685099782945
 0.3165220504642182 0.24096217274383105 0.31652205046424453 0.24096217274389456 0.051104695724402384 0.24114685099782932 0.31585120334720457 -0.7230711964851896
75500000.0 0.2912359567426529 -0.7283891792771107 0.07263871051612013 0.2473259947913497 0.3180626663705639 0.24053159224293355 0.31806266637057495 0.24053159224298365
 0.07263871051612006 0.24732599479134967 0.29123595674281044 -0.7283891792769904 0.3180626663705746 0.24053159224299342 0.31806266637060165 0.24053159224304738
 0.31806266637056374 0.24053159224293347 0.3180626663705747 0.24053159224299328 0.31121609903083525 -0.7234795252781026 0.052658568227937234 0.2424163407923361
 0.31806266637057484 0.24053159224298365 0.3180626663706016 0.24053159224304727 0.05265856822793718 0.2424163407923361 0.3112160990309567 -0.7234795252779991
76000000.0 0.28656420972112523 -0.7286467765236687 0.07426058056332165 0.24845697860957347 0.3195876048577265 0.2400948989571014 0.3195876048577379 0.24009489895715186
 0.07426058056332163 0.24845697860957341 0.2865642097212834 -0.7286467765235487 0.3195876048577375 0.24009489895716143 0.31958760485776505 0.2400948989572158
 0.3195876048577264 0.24009489895710137 0.3195876048577377 0.24009489895716155 0.30660655245687707 -0.7238579177563194 0.054218237827569286 0.2436681198422185
 0.3195876048577378 0.24009489895715175 0.3195876048577649 0.2400948989572156 0.05421823782756925 0.24366811984221834 0.3066065524569992 -0.7238579177562159
76500000.0 0.28191988992563155 -0.728874758355394 0.07588609829901152 0.2495701239612237 0.3210970058876278 0.23965231719713959 0.3210970058876394 0.23965231719719038
 0.07588609829901155 0.2495701239612236 0.2819198899257905 -0.7288747583552739 0.32109700588763923 0.23965231719719995 0.3210970058876671 0.23965231719725447
 0.3210970058876276 0.23965231719713956 0.3210970058876394 0.2396523171972001 0.30202257699855894 -0.7242068681558428 0.055783411226083594 0.24490223376166675
 0.3210970058876393 0.2396523171971902 0.3210970058876668 0.23965231719725436 0.05578341122608356 0.24490223376166662 0.3020225769986818 -0.7242068681557393
77000000.0 0.2773029907044402 -0.7290736419822378 0.07751498956735778 0.2506655104309195 0.32259100986404987 0.23920406577571426 0.3225910098640619 0.23920406577576522
 0.07751498956735772 0.25066551043091945 0.27730299070459996 -0.7290736419821183 0.3225910098640617 0.23920406577577502 0.32259100986408984 0.23920406577582962
 0.3225910098640497 0.2392040657757142 0.322591009864062 0.23920406577577508 0.2974641806715444 -0.7245268644834877 0.05735379960025268 0.2461187329321636
 0.32259100986406175 0.23920406577576514 0.3225910098640897 0.23920406577582956 0.05735379960025264 0.24611873293216346 0.2974641806716679 -0.7245268644833843
77500000.0 0.27271349988904486 -0.729243937812131 0.07914698503345831 0.251743221581339 0.32406975753869677 0.23875035811545195 0.3240697575387091 0.23875035811550313
 0.07914698503345835 0.251743221581339 0.2727134998892054 -0.7292439378120117 0.324069757538709 0.23875035811551287 0.3240697575387376 0.23875035811556775
 0.3240697575386965 0.23875035811545178 0.32406975753870904 0.23875035811551293 0.2929313662999326 -0.7248183885570842 0.058929118622569804 0.2473176723262865
 0.3240697575387088 0.23875035811550296 0.32406975753873724 0.23875035811556752 0.05892911862256978 0.24731767232628635 0.29293136630005684 -0.7248183885569811
78000000.0 0.26815139997329795 -0.7293861494951756 0.08078182018339715 0.25280334478308614 0.32553338992160025 0.23829140235610108 0.3255333899216129 0.23829140235615254
 0.08078182018339716 0.25280334478308614 0.2681513999734593 -0.7293861494950562 0.3255333899216129 0.23829140235616245 0.3255333899216418 0.2382914023562174
 0.3255333899216001 0.23829140235610102 0.3255333899216129 0.23829140235616245 0.2884241316782482 -0.7250819160469545 0.06050908847844629 0.24849911133485938
 0.32553338992161274 0.23829140235615243 0.3255333899216415 0.2382914023562172 0.060509088478446264 0.24849911133485927 0.2884241316783727 -0.7250819160468513
78500000.0 0.2636166682881375 -0.7295007739694527 0.0824192353203291 0.2538459710482752 0.326982048195714 0.23782740146064602 0.32698204819572685 0.23782740146069778
 0.08241923532032908 0.2538459710482751 0.2636166682882996 -0.7295007739693338 0.326982048195727 0.2378274014607077 0.3269820481957562 0.2378274014607628
 0.3269820481957138 0.23782740146064588 0.32698204819572707 0.2378274014607077 0.28394246972939186 -0.7253179165186631 0.06209343387907415 0.24966311359747934
 0.3269820481957267 0.23782740146069759 0.326982048195756 0.2378274014607627 0.062093433879074116 0.24966311359747925 0.2839424697295172 -0.7253179165185599
79000000.0 0.2591092771719991 -0.7295883015083425 0.08405897555679483 0.254871194867836 0.32841587363554975 0.23735855332031122 0.32841587363556296 0.23735855332036324
 0.08405897555679488 0.25487119486783594 0.259109277172162 -0.729588301508224 0.3284158736355632 0.23735855332037314 0.3284158736355928 0.2373585533204284
 0.32841587363554947 0.2373585533203111 0.3284158736355632 0.23735855332037317 0.279486368658642 -0.7255268534769508 0.06368188407015123 0.25080974683643836
 0.32841587363556274 0.23735855332036299 0.3284158736355925 0.23735855332042827 0.06368188407015128 0.25080974683643825 0.2794863686587679 -0.7255268534768481
79500000.0 0.2546291941370016 -0.7296492157692386 0.0857007908034563 0.25587911405253966 0.32983500752971734 0.236885050858408 0.3298350075297309 0.23688505085846023
 0.08570079080345624 0.25587911405253966 0.25462919413716495 -0.7296492157691201 0.3298350075297312 0.2368850508584703 0.329835007529761 0.23688505085852568
 0.32983500752971706 0.23688505085840791 0.3298350075297312 0.23688505085847025 0.27505581210379687 -0.7257091844107595 0.06527417283666014 0.2519390826940546
 0.3298350075297306 0.2368850508584601 0.32983500752976075 0.23688505085852554 0.06527417283666012 0.2519390826940545 0.27505581210392355 -0.7257091844106567
80000000.0 0.25017638203099485 -0.7296839938435676 0.08734443575443847 0.25686982957773685 0.3312395911072291 0.23640708213297476 0.33123959110724294 0.23640708213302725
 0.08734443575443844 0.25686982957773674 0.250176382031159 -0.7296839938434494 0.3312395911072432 0.23640708213303727 0.3312395911072736 0.23640708213309283
 0.3312395911072289 0.23640708213297473 0.33123959110724344 0.23640708213303738 0.2706507792815459 -0.7258653608392603 0.06687003850388651 0.2530511965734236
 0.33123959110724277 0.23640708213302714 0.3312395911072733 0.2364070821330927 0.06687003850388652 0.25305119657342345 0.27065077928167314 -0.7258653608391578
80500000.0 0.2457507991955549 -0.7296931063080112 0.08898966986946115 0.257843445431797 0.3326297654674372 0.23592483043816706 0.33262976546745143 0.2359248304382197
 0.08898966986946116 0.25784344543179694 0.24575079919571968 -0.7296931063078932 0.33262976546745177 0.23592483043822982 0.3326297654674826 0.23592483043828558
 0.33262976546743706 0.23592483043816695 0.3326297654674519 0.23592483043822993 0.2662712451301564 -0.7259958283588097 0.06846922393485876 0.2541461674825898
 0.3326297654674512 0.2359248304382196 0.33262976546748235 0.23592483043828544 0.0684692239348587 0.2541461674825896 0.2662712451302842 -0.7259958283587074
81000000.0 0.24135239962001295 -0.7296770172768384 0.0906362573529316 0.2588000684682341 0.3340056715134724 0.2354384744043628 0.33400567151348676 0.23543847440441568
 0.09063625735293164 0.2588000684682341 0.24135239962017874 -0.7296770172767205 0.3340056715134875 0.23543847440442597 0.3340056715135183 0.23543847440448168
 0.33400567151347216 0.2354384744043627 0.3340056715134875 0.23543847440442603 0.26191718044856127 -0.7261010266907512 0.07007147652438254 0.25522407788214097
 0.3340056715134867 0.23543847440441554 0.33400567151351807 0.2354384744044816 0.07007147652438252 0.2552240778821409 0.2619171804486895 -0.7261010266906487
81500000.0 0.23698113309160315 -0.7296361844552657 0.09228396713017123 0.2597398082614967 0.33536744988905687 0.23494818809694598 0.33536744988907186 0.2349481880969992
 0.09228396713017123 0.25973980826149656 0.23698113309176927 -0.729636184455148 0.3353674498890724 0.23494818809700935 0.33536744988910383 0.23494818809706527
 0.3353674498890568 0.23494818809694595 0.3353674498890725 0.2349481880970094 0.25758855203193054 -0.7261813897299925 0.07167654818984283 0.2562850135362174
 0.3353674498890717 0.23494818809699897 0.3353674498891036 0.23494818809706516 0.07167654818984283 0.25628501353621724 0.2575885520320595 -0.7261813897298903
82000000.0 0.23263694534181018 -0.7295710591937553 0.09393257282093619 0.2606627769663974 0.3367152409185704 0.23445414111374102 0.3367152409185856 0.23445414111379437
 0.0939325728209362 0.2606627769663973 0.232636945341977 -0.7295710591936377 0.3367152409185862 0.23445414111380464 0.3367152409186178 0.23445414111386062
 0.33671524091857025 0.23445414111374094 0.33671524091858634 0.23445414111380472 0.25328532280381044 -0.7262373455942889 0.07328419535893499 0.25732906336692524
 0.3367152409185855 0.23445414111379426 0.33671524091861776 0.23445414111386062 0.07328419535893495 0.2573290633669252 0.25328532280394006 -0.7262373455941868
82500000.0 0.22831977818900248 -0.7294820865431755 0.09558185271039356 0.2615690891811584 0.33804918455024524 0.23395649868107138 0.33804918455026073 0.2339564986811251
 0.09558185271039354 0.2615690891811584 0.22831977818916996 -0.7294820865430585 0.33804918455026145 0.23395649868113533 0.33804918455029354 0.2339564986811916
 0.33804918455024513 0.23395649868107143 0.3380491845502615 0.23395649868113533 0.24900745194490592 -0.7262693166741665 0.07489417895448884 0.2583563193121434
 0.33804918455026056 0.23395649868112486 0.3380491845502933 0.23395649868119142 0.07489417895448885 0.2583563193121432 0.24900745194503615 -0.7262693166740645
83000000.0 0.22402956967742615 -0.7293697053107491 0.0972315897177033 0.26245886181403555 0.33936942030237793 0.2334554217484204 0.3393694203023938 0.23345542174847422
 0.0972315897177033 0.2624588618140355 0.22402956967759438 -0.7293697053106323 0.3393694203023946 0.23345542174848466 0.33936942030242695 0.23345542174854092
 0.33936942030237766 0.23345542174842038 0.33936942030239453 0.23345542174848466 0.24475489501859182 -0.7262777196834211 0.07650626437653661 0.2593668761867016
 0.3393694203023935 0.23345542174847403 0.3393694203024267 0.2334554217485408 0.0765062643765366 0.2593668761867015 0.24475489501872244 -0.7262777196833194
83500000.0 0.21976625421264656 -0.7292343481167127 0.09888157136235474 0.263332213953492 0.34067608721244147 0.2329510670816747 0.34067608721245757 0.23295106708172877
 0.0988815713623547 0.2633322139534919 0.21976625421281537 -0.7292343481165964 0.3406760872124584 0.2329510670817392 0.34067608721249126 0.23295106708179558
 0.3406760872124412 0.23295106708167468 0.34067608721245857 0.2329510670817393 0.24052760409322332 -0.72626296571014 0.0781202214817769 0.26036083154691325
 0.3406760872124574 0.2329510670817286 0.3406760872124911 0.23295106708179555 0.07812022148177689 0.26036083154691303 0.24052760409335466 -0.7262629657100385
84000000.0 0.21552976269350682 -0.7290764414516231 0.10053158972839905 0.2641892667418816 0.3419693237889887 0.23244358735493587 0.3419693237890051 0.23244358735499004
 0.10053158972839901 0.2641892667418815 0.21552976269367646 -0.7290764414515067 0.3419693237890061 0.23244358735500056 0.3419693237890391 0.23244358735505707
 0.3419693237889886 0.2324435873549358 0.34196932378900613 0.2324435873550006 0.23632552786132655 -0.7262254602681822 0.07973582456057836 0.2613382855584344
 0.34196932378900496 0.23244358735499 0.34196932378903894 0.23244358735505702 0.07973582456057828 0.2613382855584343 0.23632552786145838 -0.7262254602680805
84500000.0 0.21132002264068872 -0.7288964057342422 0.10218144142671456 0.26503014325260343 0.34324926796623945 0.23193313124088527 0.34324926796625616 0.23193313124093973
 0.10218144142671459 0.2650301432526033 0.21132002264085883 -0.728896405734126 0.34324926796625715 0.23193313124095025 0.3432492679662907 0.23193313124100687
 0.3432492679662393 0.23193313124088516 0.3432492679662574 0.23193313124095022 0.2321486117557395 -0.7261656033490709 0.08135285231166282 0.26229934086742573
 0.34324926796625604 0.23193313124093956 0.34324926796629035 0.2319331312410067 0.08135285231166275 0.2622993408674256 0.2321486117558719 -0.7261656033489693
85000000.0 0.20713695832194376 -0.7286946553699402 0.10383092755543849 0.2658549683706852 0.34451605706124944 0.23141984349969402 0.3445160570612665 0.2314198434997487
 0.1038309275554385 0.2658549683706852 0.2071369583221146 -0.7286946553698243 0.3445160570612677 0.23141984349975933 0.3445160570613014 0.23141984349981604
 0.34451605706124927 0.23141984349969394 0.3445160570612677 0.23141984349975928 0.2279967980627766 -0.7260837894742449 0.0829710878146044 0.2632441024749837
 0.34451605706126637 0.23141984349974865 0.3445160570613012 0.231419843499816 0.08297108781460441 0.2632441024749837 0.22799679806290965 -0.7260837894741434
85500000.0 0.20298049087407552 -0.7284715988095568 0.1054798536586889 0.266663868676752 0.34576982773355797 0.2309038650664698 0.34576982773357545 0.23090386506652474
 0.10547985365868884 0.2666638686767519 0.20298049087424663 -0.7284715988094415 0.3457698277335766 0.23090386506653526 0.3457698277336108 0.2309038650665922
 0.3457698277335577 0.23090386506646976 0.3457698277335767 0.2309038650665353 0.22387002603249 -0.7259804077476231 0.0845903185002729 0.26417267761481183
 0.3457698277335752 0.23090386506652458 0.34576982773361054 0.23090386506659202 0.08459031850027281 0.2641726776148117 0.2238700260326237 -0.7259804077475219
86000000.0 0.19885053842173944 -0.7282276386086656 0.10712802968370237 0.26745697233433335 0.3470107159472186 0.23038533313723417 0.3470107159472365 0.2303853331372893
 0.1071280296837023 0.26745697233433335 0.1988505384219117 -0.7282276386085502 0.3470107159472376 0.23038533313729997 0.3470107159472722 0.23038533313735696
 0.34701071594721844 0.23038533313723406 0.3470107159472376 0.23038533313729992 0.2197682319860928 -0.7258558419084334 0.08621033611934782 0.26508517563409506
 0.3470107159472362 0.23038533313728915 0.34701071594727184 0.2303853331373568 0.08621033611934774 0.2650851756340949 0.2197682319862271 -0.7258558419083323
86500000.0 0.19474701619314005 -0.7279631714871833 0.10877526993650262 0.2682344089804621 0.34823885693511764 0.22986438125342934 0.34823885693513584 0.2298643812534847
 0.1087752699365026 0.26823440898046197 0.19474701619331272 -0.727963171487068 0.348238856935137 0.22986438125349531 0.348238856935172 0.22986438125355255
 0.3482388569351175 0.2298643812534293 0.3482388569351371 0.22986438125349537 0.2156913494206146 -0.7257104703842686 0.0878309367090268 0.26598170787754116
 0.34823885693513557 0.22986438125348443 0.34823885693517176 0.22986438125355232 0.08783093670902677 0.265981707877541 0.21569134942074933 -0.7257104703841678
87000000.0 0.1906698366326826 -0.7276785883892808 0.11042139303621462 0.2689963096195149 0.34945438516549 0.22934113938495257 0.34945438516550836 0.22934113938500802
 0.11042139303621462 0.2689963096195149 0.1906698366328558 -0.7276785883891659 0.34945438516550964 0.22934113938501885 0.34945438516554495 0.22934113938507603
 0.3494543851654899 0.2293411393849525 0.3494543851655097 0.2293411393850187 0.21163930911085466 -0.7255446663443244 0.08945192055804113 0.26686238757455205
 0.3494543851655082 0.22934113938500794 0.3494543851655447 0.2293411393850759 0.08945192055804112 0.2668623875745519 0.21163930911099 -0.7255446663442235
87500000.0 0.1866189095106641 -0.7273742745435408 0.11206622186812977 0.26974280652024435 0.3506574343105412 0.22881573401171867 0.3506574343105599 0.2288157340117744
 0.11206622186812971 0.26974280652024424 0.1866189095108379 -0.7273742745434264 0.35065743431056134 0.22881573401178512 0.3506574343105969 0.2288157340118424
 0.35065743431054086 0.22881573401171862 0.3506574343105614 0.22881573401178507 0.2076120392086982 -0.7253587977527839 0.09107309217009404 0.2677273297294809
 0.3506574343105598 0.22881573401177432 0.3506574343105967 0.22881573401184227 0.09107309217009407 0.2677273297294809 0.20761203920883425 -0.7253587977526834
88000000.0 0.18259414203005844 -0.7270506095233188 0.11370958353562903 0.2704740331159504 0.35184813721709385 0.2282882882037555 0.35184813721711294 0.22828828820381136
 0.11370958353562897 0.27047403311595025 0.182594142030233 -0.7270506095232047 0.35184813721711433 0.22828828820382216 0.35184813721715036 0.2282882882038796
 0.3518481372170935 0.22828828820375538 0.3518481372171144 0.22828828820382208 0.20360946533985727 -0.7251532274223121 0.09269426022582873 0.2685766510149373
 0.35184813721711267 0.22828828820381108 0.3518481372171501 0.22828828820387942 0.09269426022582872 0.2685766510149371 0.20360946533999363 -0.7251532274222117
88500000.0 0.17859543893046811 -0.7267079673072632 0.11535130931106244 0.27119012390773856 0.35302662587917194 0.2277589216998342 0.35302662587919126 0.22775892169989023
 0.11535130931106242 0.2711901239077385 0.17859543893064303 -0.7267079673071489 0.3530266258791927 0.22775892169990103 0.3530266258792291 0.22775892169995857
 0.3530266258791718 0.22775892169983414 0.353026625879193 0.2277589216999011 0.19963151069809804 -0.7249283130676247 0.09431523754343098 0.2694104696680937
 0.35302662587919115 0.22775892169989012 0.35302662587922895 0.22775892169995848 0.09431523754343099 0.26941046966809357 0.1996315106982349 -0.7249283130675244
89000000.0 0.17462270258930457 -0.7263467163399528 0.1169912345856795 0.2718912143708113 0.35419303141244446 0.2272277509846434 0.3541930314124642 0.22722775098469966
 0.11699123458567949 0.2718912143708113 0.1746227025894802 -0.7263467163398389 0.35419303141246583 0.22722775098471054 0.3541930314125025 0.22722775098476813
 0.35419303141244424 0.2272277509846434 0.35419303141246583 0.22722775098471049 0.19567809613701737 -0.7246844073590997 0.09593584103796533 0.2702289053899518
 0.35419303141246405 0.2272277509846995 0.35419303141250214 0.2272277509847679 0.09593584103796529 0.2702289053899517 0.19567809613715476 -0.7246844073589996
89500000.0 0.17067583312026477 -0.725967219592615 0.1186291988187036 0.27257744086373764 0.35534748403045197 0.2266948893645122 0.3553474840304719 0.22669488936456864
 0.11862919881870353 0.2725774408637375 0.17067583312044088 -0.7259672195925014 0.3553474840304738 0.22669488936457957 0.3553474840305105 0.22669488936463716
 0.3553474840304517 0.22669488936451207 0.3553474840304738 0.22669488936457952 0.19174914025942383 -0.7244218579764037 0.09755589167954298 0.2710320792475197
 0.3553474840304717 0.22669488936456852 0.3553474840305104 0.22669488936463716 0.09755589167954296 0.27103207924751965 0.19174914025956188 -0.7244218579763035
90000000.0 0.16675472846916095 -0.7255698346238809 0.12026504548563587 0.27324894054064486 0.3564901130225372 0.22616044704169236 0.3564901130225576 0.226160447041749
 0.12026504548563587 0.2732489405406448 0.16675472846933767 -0.7255698346237675 0.3564901130225593 0.22616044704175992 0.3564901130225966 0.22616044704181773
 0.356490113022537 0.22616044704169228 0.3564901130225594 0.22616044704175986 0.18784455950438392 -0.7241410076620985 0.09917521445041139 0.2718201135788559
 0.3564901130225574 0.2261604470417488 0.3564901130225963 0.22616044704181754 0.09917521445041129 0.2718201135788557 0.18784455950452242 -0.7241410076619985
90500000.0 0.16285928450716855 -0.7251549136405486 0.12189862202587509 0.2739058512662802 0.3576210467334135 0.22562453118720932 0.35762104673343414 0.2256245311872661
 0.12189862202587508 0.2739058512662801 0.16285928450734583 -0.7251549136404358 0.35762104673343603 0.22562453118727707 0.35762104673347367 0.22562453118733491
 0.3576210467334131 0.22562453118720927 0.3576210467334361 0.22562453118727713 0.18396426823198514 -0.7238421942752061 0.10079363830105656 0.27259313190093115
 0.3576210467334339 0.22562453118726597 0.35762104673347345 0.22562453118733483 0.10079363830105649 0.2725931319009311 0.18396426823212406 -0.7238421942751065
91000000.0 0.1589893951215514 -0.7247228035583173 0.12352977978972887 0.2745483115338816 0.3587404125442945 0.225087246012294 0.35874041254431555 0.22508724601235097
 0.1235297797897289 0.27454831153388154 0.1589893951217293 -0.7247228035582046 0.3587404125443175 0.2250872460123619 0.35874041254435546 0.22508724601241978
 0.3587404125442942 0.22508724601229385 0.3587404125443174 0.22508724601236182 0.18010817880587784 -0.7235257508447042 0.10241099610540075 0.27335125882026157
 0.3587404125443153 0.22508724601235078 0.3587404125443551 0.22508724601241967 0.10241099610540065 0.2733512588202615 0.18010817880601734 -0.7235257508446047
91500000.0 0.15514495230392278 -0.7242738460624617 0.12515837398489896 0.2751764603858051 0.35984833685552337 0.22454869283840523 0.35984833685554474 0.22454869283846227
 0.12515837398489887 0.27517646038580484 0.15514495230410114 -0.7242738460623497 0.3598483368555466 0.2245486928384732 0.3598483368555851 0.22454869283853116
 0.3598483368555231 0.2245486928384051 0.3598483368555469 0.2245486928384733 0.17627620167364014 -0.7231920056229252 0.10402712461517971 0.2740946199462618
 0.35984833685554446 0.22454869283846202 0.359848336855585 0.22454869283853113 0.10402712461517964 0.2740946199462616 0.17627620167378 -0.723192005622826
92000000.0 0.15132584623609796 -0.7238083776684138 0.12678426362250503 0.27579043733684966 0.3609449450706321 0.2240089701658595 0.3609449450706538 0.2240089701659169
 0.12678426362250503 0.27579043733684955 0.15132584623627673 -0.7238083776683018 0.36094494507065583 0.22400897016592775 0.3609449450706945 0.22400897016598595
 0.36094494507063196 0.22400897016585947 0.3609449450706559 0.2240089701659278 0.17246824544502634 -0.7228412821388419 0.10564186441357468 0.2748233418072713
 0.3609449450706536 0.22400897016591673 0.36094494507069425 0.2240089701659858 0.10564186441357461 0.27482334180727114 0.17246824544516692 -0.7228412821387424
92500000.0 0.14753196537359708 -0.7233267297822281 0.12840731146272588 0.2763903823002256 0.36203036158177143 0.2234681737410794 0.3620303615817935 0.22346817374113678
 0.12840731146272585 0.27639038230022556 0.1475319653737768 -0.723326729782116 0.3620303615817957 0.22346817374114808 0.36203036158183455 0.22346817374120617
 0.3620303615817713 0.2234681737410793 0.36203036158179575 0.22346817374114797 0.16868421696814478 -0.722473899251212 0.10725505986817667 0.27553755176920286
 0.3620303615817933 0.22346817374113676 0.3620303615818344 0.223468173741206 0.1072550598681766 0.27553755176920275 0.1686842169682857 -0.7224738992511128
93000000.0 0.14376319652685404 -0.7228292287608996 0.13002738396011534 0.2769764355161064 0.36310470975644804 0.22292639662247554 0.3631047097564703 0.22292639662253308
 0.1300273839601153 0.27697643551610635 0.14376319652703431 -0.7228292287607878 0.3631047097564725 0.22292639662254435 0.3631047097565118 0.22292639662260252
 0.3631047097564477 0.22292639662247543 0.36310470975647263 0.22292639662254427 0.16492402140361642 -0.7220901712015634 0.10886655908335104 0.27623737795676345
 0.3631047097564702 0.22292639662253297 0.36310470975651155 0.22292639662260236 0.10886655908335098 0.27623737795676334 0.164924021403758 -0.7220901712014643
93500000.0 0.1400194249401791 -0.7223161959725091 0.1316443512086612 0.27754873748271036 0.3641681119255119 0.2223837292449792 0.3641681119255345 0.22238372924503713
 0.13164435120866116 0.27754873748271025 0.14001942494035977 -0.7223161959723977 0.364168111925537 0.2223837292450481 0.3641681119255767 0.2223837292451065
 0.36416811192551163 0.22238372924497907 0.36416811192553705 0.22238372924504815 0.161187562296763 -0.7216904076670033 0.1104762138520751 0.2769229491771979
 0.36416811192553433 0.22238372924503694 0.36416811192557647 0.2223837292451064 0.11047621385207498 0.2769229491771978 0.16118756229690534 -0.7216904076669044
94000000.0 0.1363005343685368 -0.7217879478561736 0.1332580868866467 0.27810742888985457 0.36522068937234 0.2218402594832401 0.36522068937236285 0.22184025948329805
 0.13325808688664675 0.2781074288898546 0.13630053436871803 -0.7217879478560624 0.36522068937236535 0.22184025948330918 0.36522068937240526 0.22184025948336752
 0.3652206893723397 0.22184025948324013 0.3652206893723653 0.22184025948330924 0.15747474164787129 -0.7212749138128295 0.1120838796073105 0.2775943948465041
 0.3652206893723627 0.22184025948329789 0.3652206893724048 0.2218402594833674 0.11208387960731045 0.277594394846504 0.1574747416480137 -0.7212749138127309
94500000.0 0.13260640715218613 -0.7212447959817755 0.1348684682013677 0.278652650554925 0.3662625623231544 0.22129607271350663 0.3662625623231778 0.22129607271356475
 0.13486846820136766 0.27865265055492494 0.13260640715236763 -0.7212447959816647 0.36626256232318005 0.2212960727135759 0.3662625623232204 0.22129607271363427
 0.3662625623231543 0.22129607271350665 0.3662625623231801 0.22129607271357588 0.1537854599805782 -0.720843990344927 0.11368941537297346 0.27825184491806987
 0.3662625623231776 0.22129607271356466 0.3662625623232202 0.22129607271363422 0.11368941537297338 0.2782518449180697 0.15378545998072107 -0.7208439903448285
95000000.0 0.12893692428922995 -0.7206870471094541 0.13647537583376418 0.27918454336120657 0.36729384993843367 0.22075125187420602 0.36729384993845726 0.2207512518742641
 0.13647537583376412 0.2791845433612065 0.12893692428941214 -0.7206870471093434 0.36729384993845987 0.22075125187427547 0.36729384993850045 0.22075125187433384
 0.3672938499384334 0.22075125187420583 0.3672938499384599 0.22075125187427538 0.15011961640842816 -0.7203979335619363 0.11529268371456407 0.278895429813682
 0.3672938499384571 0.22075125187426392 0.3672938499385002 0.2207512518743337 0.11529268371456401 0.278895429813682 0.15011961640857138 -0.720397933561838
95500000.0 0.12529196550613342 -0.7201150032488328 0.13807869388301405 0.2797032481985185 0.3683146703053564 0.22020587752524046 0.36831467030538034 0.22020587752529872
 0.138078693883014 0.27970324819851833 0.12529196550631638 -0.7201150032487224 0.368314670305383 0.22020587752531004 0.368314670305424 0.2202058775253685
 0.3683146703053561 0.22020587752524026 0.3683146703053832 0.22020587752531 0.14647710869963707 -0.7199370354071769 0.11689355068950859 0.27952528035685564
 0.3683146703053801 0.22020587752529852 0.3683146703054236 0.2202058775253684 0.11689355068950855 0.2795252803568555 0.14647710869978098 -0.7199370354070788
96000000.0 0.12167140932624824 -0.7195289617179685 0.1396783098111397 0.2802089059060981 0.3693251404312357 0.21966002790601927 0.3693251404312601 0.2196600279060777
 0.13967830981113966 0.280208905906098 0.12167140932643161 -0.7195289617178584 0.36932514043126274 0.21966002790608902 0.36932514043130404 0.21966002790614755
 0.36932514043123554 0.21966002790601907 0.36932514043126285 0.21966002790608902 0.1428578333401135 -0.7194615835203114 0.11849188579727234 0.28014152770843426
 0.3693251404312598 0.2196600279060775 0.3693251404313039 0.21966002790614747 0.11849188579727228 0.2801415277084341 0.14285783334025787 -0.7194615835202136
96500000.0 0.11807513313639738 -0.7189292152019998 0.14127411438767126 0.2807016572176814 0.3703253762378951 0.21911377899224405 0.3703253762379196 0.21911377899230264
 0.14127411438767126 0.28070165721768137 0.11807513313658109 -0.71892921520189 0.37032537623792244 0.219113778992314 0.370325376237964 0.21911377899237247
 0.3703253762378948 0.2191137789922439 0.37032537623792244 0.21911377899231388 0.13926168559477645 -0.7189718612887375 0.12008756192928995 0.2807443033044121
 0.37032537623791945 0.21911377899230244 0.3703253762379637 0.2191137789923724 0.12008756192928997 0.28074430330441197 0.13926168559492114 -0.7189718612886397
97000000.0 0.11450301325156526 -0.7183160518114822 0.1428660016344127 0.2811816427087229 0.3713154925569399 0.21856720455146514 0.3713154925569647 0.21856720455152379
 0.1428660016344127 0.281181642708723 0.11450301325174962 -0.7183160518113726 0.3713154925569677 0.21856720455153522 0.3713154925570095 0.21856720455159395
 0.3713154925569398 0.2185672045514651 0.3713154925569678 0.21856720455153528 0.13568855956720896 -0.718468147898693 0.12168045531876684 0.2813337387959269
 0.37131549255696467 0.21856720455152379 0.37131549255700924 0.2185672045515938 0.12168045531876678 0.28133373879592677 0.1356885595673541 -0.7184681478985953
97500000.0 0.11095492497773754 -0.7176897551403891 0.1444538687703492 0.28164900274570315 0.372295603125885 0.2180203761974294 0.37229560312591026 0.21802037619748832
 0.1444538687703491 0.28164900274570304 0.1109549249779222 -0.7176897551402799 0.37229560312591314 0.2180203761974996 0.3722956031259554 0.21802037619755837
 0.3722956031258848 0.21802037619742934 0.3722956031259132 0.2180203761974996 0.13213834825769033 -0.7179507183860684 0.12327044549039431 0.2819099659913756
 0.37229560312591004 0.21802037619748812 0.3722956031259553 0.21802037619755826 0.12327044549039426 0.28190996599137547 0.1321383482578359 -0.7179507183859708
98000000.0 0.10743074267293576 -0.717050604323769 0.14603761615673583 0.28210387743746995 0.37326582058509217 0.21747336344323678 0.37326582058511787 0.21747336344329596
 0.1460376161567358 0.2821038774374699 0.10743074267312105 -0.7170506043236597 0.3732658205851207 0.21747336344330723 0.37326582058516344 0.21747336344336604
 0.37326582058509195 0.21747336344323684 0.37326582058512076 0.21747336344330728 0.12861094361964331 -0.7174198436869079 0.12485741521002584 0.2824731168006023
 0.3732658205851176 0.2174733634432958 0.37326582058516306 0.21747336344336587 0.12485741521002577 0.28247311680060205 0.12861094361978956 -0.7174198436868107
98500000.0 0.10393033980648825 -0.7163988740950387 0.1476171472424047 0.282546406588562 0.37422625647548097 0.21692623375332645 0.3742262564755069 0.21692623375338557
 0.1476171472424047 0.28254640658856195 0.10393033980667406 -0.7163988740949297 0.3742262564755099 0.2169262337533971 0.3742262564755528 0.21692623375345582
 0.3742262564754808 0.21692623375332645 0.37422625647551006 0.2169262337533971 0.1251062366145376 -0.7168757906875948 0.12644125043435336 0.2830233231811117
 0.37422625647550667 0.21692623375338538 0.37422625647555247 0.21692623375345563 0.12644125043435328 0.2830233231811115 0.12510623661468406 -0.716875790687498
99000000.0 0.10045358901658541 -0.715734834842904 0.149192368509323 0.2829767296544619 0.3751770212369727 0.21637905259430992 0.37517702123699903 0.21637905259436926
 0.14919236850932296 0.28297672965446186 0.10045358901677165 -0.7157348348427954 0.3751770212370021 0.2163790525943807 0.3751770212370453 0.21637905259443957
 0.37517702123697255 0.2163790525943099 0.3751770212370021 0.21637905259438062 0.12162411726528079 -0.7163188222747081 0.12802184026062527 0.2835607170862593
 0.37517702123699875 0.2163790525943691 0.3751770212370451 0.21637905259443938 0.1280218402606253 0.28356071708625924 0.12162411726542792 -0.7163188222746112
99500000.0 0.09700036216615164 -0.7150587526678948 0.150763189418436 0.2833949856987287 0.37611822420763275 0.21583188348467303 0.37611822420765917 0.21583188348473237
 0.15076318941843594 0.2833949856987285 0.09700036216633814 -0.7150587526677867 0.3761182242076624 0.21583188348474375 0.37611822420770596 0.21583188348480256
 0.3761182242076324 0.2158318834846728 0.37611822420766255 0.21583188348474372 0.11816447470814119 -0.7157491973845432 0.12959907687644417 0.2840854304153701
 0.376118224207659 0.2158318834847322 0.37611822420770574 0.2158318834848025 0.12959907687644406 0.28408543041537 0.11816447470828864 -0.7157491973844464
100000000.0 0.09357053039708467 -0.7143708894385 0.15232952235582423 0.283801313351957 0.3770499736234715 0.2152847880433621 0.3770499736234984 0.21528478804342163
 0.15232952235582417 0.2838013133519569 0.09357053039727191 -0.7143708894383921 0.3770499736235017 0.21528478804343318 0.3770499736235454 0.21528478804349202
 0.3770499736234713 0.21528478804336204 0.3770499736235018 0.21528478804343312 0.1147271972432301 -0.715167171052288 0.13117285550967672 0.2845975949657382
 0.3770499736234982 0.21528478804342144 0.37704997362354525 0.2152847880434919 0.1311728555096767 0.2845975949657381 0.1147271972433779 -0.7151671710521915
100500000.0 0.09016396418289449 -0.7136715028468948 0.1538912825792044 0.2841958507725184 0.3779723766188761 0.21473782603727953 0.3779723766189033 0.21473782603733924
 0.15389128257920442 0.2841958507725183 0.09016396418308201 -0.7136715028467869 0.3779723766189066 0.2147378260373506 0.37797237661895083 0.21473782603740962
 0.37797237661887595 0.21473782603727945 0.37797237661890676 0.21473782603735067 0.11131217238358183 -0.7145729944608464 0.13274307437851454 0.28509734238646317
 0.3779723766189032 0.21473782603733912 0.37797237661895067 0.2147378260374096 0.13274307437851451 0.2850973423864631 0.1113121723837303 -0.7145729944607501
101000000.0 0.08678053337978286 -0.7129608464642484 0.15544838816479917 0.28457873560902924 0.37888553922763407 0.21419105542770203 0.3788855392276615 0.21419105542776168
 0.15544838816479914 0.284578735609029 0.08678053337997119 -0.712960846464141 0.3788855392276648 0.21419105542777325 0.37888553922770934 0.21419105542783218
 0.3788855392276338 0.2141910554277018 0.3788855392276651 0.21419105542777328 0.10791928690286785 -0.7139669149893016 0.13430963464171197 0.28558480413407544
 0.3788855392276613 0.21419105542776157 0.3788855392277092 0.21419105542783218 0.13430963464171194 0.28558480413407533 0.1079192869030166 -0.7139669149892053
101500000.0 0.0834201072762054 -0.7122391697956053 0.15700075995460178 0.2849501049645025 0.37978956638452116 0.2136445324156447 0.379789566384549 0.21364453241570466
 0.15700075995460175 0.2849501049645024 0.0834201072763939 -0.7122391697954985 0.37978956638455236 0.21364453241571602 0.3797895663845972 0.2136445324157751
 0.3797895663845208 0.2136445324156446 0.37978956638455247 0.21364453241571604 0.10454842688176866 -0.7133491762610131 0.13587244034903595 0.28606011142990334
 0.3797895663845488 0.2136445324157044 0.379789566384597 0.213644532415775 0.13587244034903584 0.2860601114299032 0.10454842688191797 -0.7133491762609171
102000000.0 0.08008255464094428 -0.7115067183343269 0.15854832150405823 0.2853100953621343 0.38068456192742295 0.21309831148619043 0.3806845619274512 0.21309831148625044
 0.1585483215040582 0.2853100953621342 0.08008255464113355 -0.7115067183342202 0.38068456192745476 0.213098311486262 0.38068456192749983 0.21309831148632105
 0.38068456192742284 0.2130983114861903 0.3806845619274548 0.21309831148626193 0.10119947775304762 -0.712720018191342 0.13743139839195234 0.2865233952191421
 0.38068456192745087 0.21309831148625022 0.3806845619274996 0.21309831148632097 0.13743139839195223 0.286523395219142 0.10119947775319738 -0.7127200181912461
102500000.0 0.07676774376974033 -0.7107637336160904 0.1600909990301881 0.2856588427126773 0.38157062859995977 0.21255244545180157 0.38157062859998814 0.21255244545186155
 0.16009099903018806 0.28565884271267716 0.07676774376992963 -0.7107637336159838 0.38157062859999186 0.21255244545187327 0.38157062860003715 0.21255244545193225
 0.38157062859995955 0.21255244545180144 0.3815706285999919 0.21255244545187316 0.0978723243453484 -0.7120796770349959 0.13898641845457715 0.2869747861315756
 0.381570628599988 0.21255244545186158 0.3815706286000369 0.21255244545193222 0.1389864184545771 0.28697478613157557 0.0978723243454984 -0.7120796770348999
103000000.0 0.07347554253050564 -0.7100104532724338 0.16162872136016582 0.2859964822833573 0.38244786805458775 0.21200698549463393 0.3824478680546165 0.21200698549469413
 0.1616287213601658 0.2859964822833572 0.07347554253069534 -0.7100104532723274 0.3824478680546201 0.21200698549470576 0.38244786805466585 0.21200698549476474
 0.3824478680545876 0.21200698549463393 0.3824478680546203 0.2120069854947057 0.09456685092575055 -0.7114283854329929 0.1405374129649182 0.2874144144439095
 0.38244786805461645 0.21200698549469404 0.38244786805466574 0.21200698549476468 0.14053741296491815 0.2874144144439095 0.09456685092590086 -0.7114283854328975
103500000.0 0.07020581840716693 -0.7092471110838435 0.16316141988037733 0.286323148668288 0.3833163808561509 0.21146198120787452 0.3833163808561801 0.21146198120793494
 0.16316141988037725 0.28632314866828784 0.07020581840735696 -0.7092471110837376 0.38331638085618364 0.21146198120794626 0.38331638085622977 0.21146198120800552
 0.3833163808561506 0.21146198120787443 0.3833163808561838 0.21146198120794632 0.09128294124111413 -0.7107663724592365 0.14208429704642733 0.28784241004367384
 0.38331638085617975 0.21146198120793475 0.3833163808562295 0.2114619812080054 0.14208429704642722 0.28784241004367367 0.09128294124126514 -0.7107663724591409
104000000.0 0.06695843854215804 -0.7084739370323762 0.16468902848597403 0.28663897576033753 0.3841762664858564 0.21091748063611687 0.38417626648588576 0.2109174806361773
 0.16468902848597405 0.2866389757603375 0.06695843854234901 -0.7084739370322704 0.38417626648588965 0.21091748063618893 0.384176266485936 0.21091748063624802
 0.3841762664858561 0.21091748063611673 0.3841762664858896 0.2109174806361889 0.08802047855823966 -0.7100938636666948 0.1436269884698898 0.28825890239464924
 0.3841762664858855 0.2109174806361771 0.3841762664859358 0.210917480636248 0.1436269884698898 0.2882589023946491 0.08802047855839099 -0.7100938636665995
104500000.0 0.06373326977760926 -0.7076911573538083 0.16621148353093487 0.28694409672440746 0.38502762334565005 0.21037353031479883 0.38502762334567975 0.21037353031485928
 0.16621148353093487 0.28694409672440735 0.06373326977780044 -0.7076911573537028 0.38502762334568363 0.2103735303148709 0.3850276233457302 0.21037353031493009
 0.3850276233456498 0.2103735303147988 0.38502762334568374 0.21037353031487094 0.08477934570287404 -0.7094110811331891 0.14516540760566704 0.2886640205037812
 0.3850276233456795 0.21037353031485923 0.38502762334572993 0.21037353031493003 0.14516540760566693 0.2886640205037811 0.08477934570302578 -0.709411081133094
105000000.0 0.06053017869525208 -0.706898994589311 0.16772872377865447 0.2872386439720777 0.38587054876296806 0.20983017530871592 0.38587054876299814 0.2098301753087765
 0.16772872377865458 0.28723864397207766 0.06053017869544407 -0.7068989945892059 0.38587054876300225 0.20983017530878828 0.3858705487630491 0.2098301753088473
 0.385870548762968 0.20983017530871576 0.38587054876300225 0.2098301753087881 0.0815594250975898 -0.7087182435067761 0.1466994773763143 0.2890578928895354
 0.3858705487629979 0.20983017530877637 0.385870548763049 0.20983017530884734 0.14669947737631436 0.2890578928895353 0.08155942509774185 -0.7087182435066812
105500000.0 0.05734903165508555 -0.706097667636645 0.16924069035306968 0.2875227491375802 0.3867051389958434 0.20928745924963268 0.3867051389958739 0.20928745924969333
 0.16924069035306968 0.2875227491375801 0.05734903165527772 -0.70609766763654 0.38670513899587794 0.20928745924970493 0.38670513899592507 0.20928745924976422
 0.38670513899584325 0.2092874592496325 0.386705138995878 0.20928745924970496 0.07836059879856197 -0.7080155660507294 0.1482291232095905 0.2894406475516574
 0.3867051389958737 0.20928745924969316 0.3867051389959248 0.20928745924976408 0.14822912320959045 0.2894406475516573 0.07836059879871445 -0.7080155660506346
106000000.0 0.05418969483282095 -0.705287391800868 0.17074732669033443 0.2877965430550555 0.3875314892383431 0.20874542437300722 0.3875314892383736 0.20874542437306784
 0.17074732669033438 0.2877965430550553 0.05418969483301355 -0.705287391800763 0.3875314892383778 0.20874542437307975 0.3875314892384252 0.20874542437313875
 0.3875314892383428 0.20874542437300708 0.38753148923837794 0.2087454243730797 0.07518274853127692 -0.7073032606881166 0.14975427299187594 0.289812411942297
 0.3875314892383734 0.20874542437306784 0.387531489238425 0.20874542437313878 0.1497542729918759 0.289812411942297 0.07518274853142962 -0.707303260688022
106500000.0 0.05105203425614695 -0.7044683788445555 0.1722485784910575 0.2880601557370587 0.38834969362631816 0.20820411155385035 0.38834969362634914 0.20820411155391128
 0.17224857849105743 0.28806015573705845 0.05105203425633966 -0.7044683788444512 0.38834969362635324 0.20820411155392274 0.388349693626401 0.20820411155398208
 0.38834969362631794 0.20820411155385032 0.3883496936263533 0.20820411155392288 0.07202575572518712 -0.706581536045962 0.15127485702201432 0.2901733129384582
 0.3883496936263489 0.20820411155391114 0.38834969362640087 0.20820411155398202 0.1512748570220142 0.29017331293845816 0.07202575572534052 -0.7065815360458676
107000000.0 0.04793591583983653 -0.7036408370375303 0.1737443936731094 0.2883137163542691 0.3891598452434467 0.20766356034173333 0.389159845243478 0.2076635603417944
 0.1737443936731094 0.288313716354269 0.047935915840030256 -0.7036408370374262 0.38915984524348224 0.20766356034180616 0.3891598452435305 0.20766356034186534
 0.3891598452434465 0.20766356034173328 0.3891598452434824 0.20766356034180608 0.06888950154735042 -0.7058505974990045 0.15279080796559277 0.29052347681573604
 0.38915984524347785 0.20766356034179423 0.38915984524353014 0.20766356034186537 0.1527908079655927 0.290523476815736 0.06888950154750427 -0.7058505974989103
107500000.0 0.04484120541973136 -0.7028049712060952 0.17523472232501064 0.2885573532163717 0.3899620361275484 0.20712380899496552 0.38996203612758024 0.20712380899502647
 0.17523472232501044 0.28855735321637144 0.04484120541992491 -0.7028049712059915 0.38996203612758434 0.20712380899503816 0.3899620361276327 0.20712380899509736
 0.3899620361275482 0.20712380899496538 0.3899620361275847 0.20712380899503818 0.06577386693506637 -0.7051106472130356 0.15430206080967274 0.2908630292233048
 0.38996203612757985 0.20712380899502628 0.3899620361276327 0.20712380899509727 0.15430206080967263 0.2908630292233047 0.06577386693522012 -0.7051106472129417
108000000.0 0.041767768785624146 -0.7019609827817693 0.17671951665990424 0.2887911937540678 0.3907563572771549 0.20658489451395537 0.3907563572771869 0.20658489451401657
 0.17671951665990415 0.2887911937540677 0.041767768785818164 -0.7019609827816656 0.39075635727719116 0.20658489451402817 0.3907563572772399 0.20658489451408749
 0.3907563572771547 0.20658489451395534 0.3907563572771913 0.20658489451402826 0.06267873262754195 -0.7043618841878284 0.15580855281798323 0.2911920951601197
 0.39075635727718655 0.20658489451401646 0.3907563572772397 0.20658489451408746 0.15580855281798314 0.2911920951601195 0.06267873262769655 -0.7043618841877346
108500000.0 0.038715471713075836 -0.7011090698495257 0.17819873097012565 0.2890153645021822 0.3915428986583177 0.20604685267377731 0.39154289865835007 0.2060468526738386
 0.17819873097012562 0.28901536450218207 0.03871547171327021 -0.7011090698494226 0.39154289865835434 0.20604685267385017 0.39154289865840347 0.20604685267390946
 0.39154289865831754 0.20604685267377731 0.3915428986583545 0.20604685267385026 0.0596039791966095 -0.7036045042996464 0.1573102234865891 0.2915107989522957
 0.39154289865834974 0.20604685267383832 0.3915428986584032 0.20604685267390935 0.157310223486589 0.29151079895229554 0.05960397919676435 -0.703604504299553
109000000.0 0.035684179994186785 -0.7002494271955276 0.17967232158237098 0.2892299910838297 0.39232174921163926 0.2055097180559553 0.39232174921167173 0.20550971805601662
 0.17967232158237093 0.2892299910838296 0.03568417999438155 -0.7002494271954245 0.3923217492116763 0.2055097180560283 0.3923217492117256 0.20550971805608756
 0.39232174921163904 0.20550971805595525 0.3923217492116764 0.20550971805602833 0.05654948707651153 -0.7028387003433368 0.15880701450004325 0.2918192642316318
 0.39232174921167157 0.20550971805601656 0.3923217492117253 0.20550971805608745 0.15880701450004306 0.29181926423163174 0.05654948707666667 -0.7028387003432433
109500000.0 0.032673759467353146 -0.6993822463543607 0.18114024681347 0.28943519819560576 0.3930929968595062 0.20497352407948471 0.3930929968595391 0.2049735240795462
 0.18114024681346996 0.28943519819560565 0.032673759467548066 -0.6993822463542579 0.39309299685954346 0.20497352407955768 0.3930929968595932 0.2049735240796171
 0.393092996859506 0.2049735240794847 0.39309299685954374 0.20497352407955774 0.053515136592789746 -0.7020646620740038 0.16029886968802998 0.2921176139152416
 0.39309299685953886 0.204973524079546 0.3930929968595931 0.20497352407961694 0.16029886968802987 0.2921176139152415 0.053515136592945475 -0.7020646620739106
110000000.0 0.02968407604603097 -0.6985077156557646 0.18260246692677026 0.2896311095937682 0.3938567285135168 0.20443830303110638 0.39385672851354997 0.20443830303116808
 0.18260246692677026 0.28963110959376825 0.02968407604622657 -0.698507715655662 0.3938567285135545 0.20443830303117969 0.3938567285136045 0.204438303031239
 0.3938567285135165 0.20443830303110644 0.39385672851355463 0.2044383030311796 0.050500807990285376 -0.701282576248264 0.1617857349825126 0.29240597018626036
 0.39385672851354975 0.20443830303116786 0.39385672851360415 0.2044383030312388 0.16178573498251245 0.29240597018626024 0.05050080799044152 -0.7012825762481709
110500000.0 0.02671499574653838 -0.6976260202708581 0.1840589440891328 0.2898178480813763 0.3946130300820812 0.20390408609485 0.39461303008211485 0.20390408609491154
 0.18405894408913276 0.28981784808137606 0.02671499574673453 -0.6976260202707557 0.39461303008211945 0.20390408609492322 0.3946130300821696 0.2039040860949825
 0.394613030082081 0.20390408609484995 0.39461303008211945 0.20390408609492333 0.047506381460281466 -0.700492626665082 0.1632675583753865 0.2926844544755933
 0.3946130300821145 0.20390408609491142 0.39461303008216947 0.20390408609498253 0.16326755837538645 0.2926844544755932 0.04750638146043774 -0.7004926266649895
111000000.0 0.023766384714913644 -0.696737342257859 0.18550964232854486 0.289995535496355 0.3953619864781873 0.20337090338086208 0.39536198647822113 0.20337090338092362
 0.1855096423285448 0.2899955354963548 0.023766384715110115 -0.696737342257757 0.3953619864782259 0.20337090338093533 0.39536198647827636 0.20337090338099462
 0.39536198647818716 0.20337090338086203 0.39536198647822607 0.2033709033809354 0.044531737166804954 -0.6996949942061869 0.16474428987665038 0.2929531874446756
 0.3953619864782209 0.20337090338092345 0.3953619864782762 0.20337090338099453 0.16474428987665035 0.29295318744467547 0.044531737166961474 -0.6996949942060944
111500000.0 0.020838109252858828 -0.6958418606073015 0.1869545274923495 0.2901642927004525 0.39610368162731197 0.2028387839535354 0.3961036816273461 0.20283878395359708
 0.18695452749234948 0.2901642927004523 0.020838109253055608 -0.6958418606071998 0.3961036816273508 0.20283878395360885 0.39610368162740167 0.202838783953668
 0.3961036816273117 0.20283878395353525 0.3961036816273508 0.20283878395360877 0.0415767552721099 -0.6988898568760653 0.166215881473095 0.2932122889692088
 0.3961036816273457 0.2028387839535968 0.3961036816274014 0.20283878395366792 0.16621588147309485 0.2932122889692087 0.041576755272266966 -0.6988898568759728
112000000.0 0.017930035842789613 -0.6949397512867469 0.18839356720609668 0.290324239569061 0.3968381984754726 0.20230775585895444 0.39683819847550694 0.20230775585901625
 0.18839356720609665 0.29032423956906095 0.01793003584298654 -0.6949397512866453 0.3968381984755118 0.2023077558590279 0.39683819847556284 0.20230775585908722
 0.3968381984754724 0.20230775585895444 0.39683819847551194 0.20230775585902794 0.03864131596136167 -0.6980773898415403 0.16768228708752128 0.2934618781238473
 0.3968381984755069 0.20230775585901623 0.3968381984755626 0.20230775585908717 0.16768228708752114 0.29346187812384716 0.038641315961519075 -0.6980773898414478
112500000.0 0.015042031172016808 -0.6940311872849888 0.1898267308330122 0.2904754949818695 0.3975656189974008 0.20177784615167219 0.39756561899743553 0.20177784615173402
 0.1898267308330121 0.2904754949818693 0.01504203117221409 -0.6940311872848876 0.39756561899744025 0.20177784615174574 0.3975656189974917 0.20177784615180505
 0.3975656189974005 0.20177784615167224 0.3975656189974404 0.2017778461517458 0.035725299466539545 -0.6972577654709267 0.16914346253848603 0.2937020731678004
 0.3975656189974353 0.20177784615173394 0.39756561899749154 0.20177784615180497 0.16914346253848606 0.2937020731678003 0.03572529946669746 -0.6972577654708348
113000000.0 0.01217396215607923 -0.693116338655758 0.19125398943408956 0.2906181768143194 0.3982860242048304 0.20124908092083274 0.3982860242048654 0.20124908092089464
 0.19125398943408947 0.29061817681431934 0.012173962156277182 -0.6931163386556569 0.3982860242048704 0.20124908092090646 0.398286024204922 0.20124908092096574
 0.3982860242048302 0.20124908092083277 0.3982860242048705 0.2012490809209065 0.032828586089582085 -0.69643115337277 0.17059936550058336 0.29393299153132413
 0.3982860242048652 0.20124908092089447 0.3982860242049217 0.20124908092096555 0.17059936550058324 0.2939329915313239 0.03282858608974012 -0.6964311533726782
113500000.0 0.009325695961251088 -0.6921953725609203 0.19267531572880162 0.29075240192983676 0.39899949415488795 0.20072148531565626 0.3989994941549232 0.20072148531571823
 0.19267531572880164 0.29075240192983665 0.009325695961449403 -0.6921953725608195 0.39899949415492836 0.20072148531572995 0.3989994941549802 0.20072148531578926
 0.3989994941548878 0.20072148531565626 0.3989994941549284 0.20072148531573003 0.029951056224787404 -0.6955977204341635 0.172049955465262 0.2941547498030728
 0.3989994941549231 0.20072148531571804 0.39899949415498 0.20072148531578918 0.1720499554652619 0.2941547498030727 0.029951056224945836 -0.6955977204340718
114000000.0 0.0064971000262475775 -0.6912684533131748 0.19409068405643173 0.2908782861728093 0.39970610795857436 0.20019508357029792 0.39970610795861 0.20019508357035998
 0.1940906840564316 0.29087828617280914 0.006497100026445872 -0.6912684533130742 0.39970610795861505 0.20019508357037175 0.3997061079586672 0.20019508357043092
 0.39970610795857414 0.20019508357029792 0.3997061079586153 0.20019508357037175 0.027092590380492724 -0.6947576308586537 0.17349519370218305 0.2943674637182812
 0.3997061079586098 0.20019508357035987 0.39970610795866707 0.20019508357043098 0.17349519370218291 0.29436746371828104 0.027092590380651555 -0.694757630858562
114500000.0 0.0036880420831444335 -0.6903357424182497 0.19550007033802316 0.29099594436228543 0.4004059437893298 0.19966989902809834 0.4004059437893657 0.19966989902816024
 0.1955000703380231 0.29099594436228526 0.0036880420833432957 -0.6903357424181494 0.4004059437893709 0.19966989902817212 0.4004059437894234 0.19966989902823123
 0.4004059437893295 0.19966989902809823 0.400405943789371 0.19966989902817214 0.02425306920004574 -0.6939110462037232 0.17493504322111839 0.29457124814775204
 0.4004059437893654 0.1996698990281601 0.400405943789423 0.19966989902823115 0.1749350432211183 0.29457124814775193 0.02425306920020464 -0.6939110462036321
115000000.0 0.0008983901775396715 -0.6893973986166011 0.1969034520389464 0.2911054902863652 0.4010990788916702 0.1991459541652352 0.40109907889170654 0.19914595416529735
 0.1969034520389464 0.2911054902863651 0.0008983901777386216 -0.6893973986165012 0.40109907889171154 0.19914595416530909 0.40109907889176427 0.19914595416536826
 0.40109907889167007 0.1991459541652352 0.40109907889171165 0.19914595416530906 0.02143237348209015 -0.6930581254178638 0.1763694687343923 0.29476621708762074
 0.4010990788917063 0.19914595416529718 0.4010990788917641 0.19914595416536812 0.17636946873439224 0.2947662170876206 0.02143237348224969 -0.6930581254177729
115500000.0 -0.0018719873120320054 -0.688453577924612 0.1983008081320804 0.29120703669725956 0.40178558958988864 0.19862327061379426 0.40178558958992516 0.19862327061385635
 0.19830080813208023 0.2912070366972594 -0.0018719873118325948 -0.688453577924512 0.4017855895899303 0.19862327061386817 0.4017855895899834 0.1986232706139274
 0.40178558958988847 0.19862327061379423 0.4017855895899306 0.19862327061386825 0.018630384200177992 -0.6921990248772307 0.17779843661986677 0.29495248364987126
 0.401785589589925 0.19862327061385632 0.4017855895899833 0.19862327061392734 0.17779843661986663 0.2949524836498711 0.018630384200337892 -0.6921990248771397
116000000.0 -0.004623221655402655 -0.6875044336752951 0.19969211906160486 0.2913006953069937 0.4024655512968113 0.19810186918426978 0.40246555129684797 0.198101869184332
 0.19969211906160486 0.2913006953069936 -0.004623221655202449 -0.6875044336751956 0.40246555129685335 0.1981018691843438 0.4024655512969067 0.19810186918440298
 0.40246555129681094 0.19810186918426972 0.4024655512968535 0.19810186918434386 0.015846982521728423 -0.691333898421888 0.17922191488447015 0.29513016005357934
 0.40246555129684786 0.19810186918433198 0.4024655512969065 0.19810186918440303 0.17922191488447006 0.2951301600535793 0.015846982521888743 -0.691333898421797
116500000.0 -0.007355443752780898 -0.6865501165585048 0.20107736670740428 0.29138657678372715 0.40313903852260025 0.19758176988750864 0.4031390385226375 0.197581769887571
 0.2010773667074042 0.2913865767837271 -0.007355443752580438 -0.6865501165584056 0.40313903852264277 0.19758176988758286 0.40313903852269634 0.197581769887642
 0.4031390385226 0.19758176988750867 0.40313903852264277 0.19758176988758278 0.013082049826348816 -0.6904628973916409 0.18063987312827098 0.2952993576168559
 0.40313903852263716 0.1975817698875708 0.403139038522696 0.19758176988764178 0.18063987312827082 0.2952993576168557 0.013082049826509425 -0.6904628973915503
117000000.0 -0.010068784117446036 -0.685590774660654 0.202456534350075 0.2914647907486713 0.4038061248835971 0.19706299195611232 0.40380612488363465 0.19706299195617466
 0.2024565343500749 0.29146479074867115 -0.010068784117245485 -0.6855907746605552 0.40380612488364 0.19706299195618635 0.4038061248836939 0.19706299195624558
 0.40380612488359685 0.19706299195611224 0.4038061248836402 0.19706299195618637 0.010335467723531905 -0.6895861706614584 0.1820522825090931 0.2954601867494686
 0.4038061248836344 0.1970629919561744 0.40380612488369355 0.19706299195624544 0.18205228250909306 0.29546018674946833 0.010335467723692739 -0.6895861706613681
117500000.0 -0.012763372859108642 -0.6846265535039432 0.20382960663653624 0.2915354457735761 0.40446688311119733 0.19654555386530537 0.4044668831112351 0.19654555386536784
 0.20382960663653626 0.2915354457735759 -0.012763372858907654 -0.6846265535038445 0.40446688311124057 0.19654555386537942 0.4044668831112946 0.19654555386543862
 0.4044668831111971 0.19654555386530523 0.4044668831112405 0.19654555386537947 0.007607118069747659 -0.6887038646764909 0.18345911570767623 0.29561275694611633
 0.4044668831112348 0.19654555386536757 0.4044668831112943 0.19654555386543857 0.1834591157076762 0.29561275694611616 0.007607118069908978 -0.6887038646764004
118000000.0 -0.015439339667918557 -0.683657596085103 0.20519656954623938 0.29159864937876967 0.4051213850607503 0.19602947335328938 0.40512138506078815 0.1960294733533517
 0.20519656954623947 0.29159864937876967 -0.015439339667717142 -0.6836575960850044 0.4051213850607939 0.19602947335336357 0.4051213850608482 0.19602947335342255
 0.40512138506075007 0.1960294733532893 0.4051213850607939 0.19602947335336354 0.0048968829849429804 -0.6878161234866765 0.1848603468933745 0.2957571767803361
 0.4051213850607881 0.19602947335335155 0.4051213850608478 0.19602947335342258 0.18486034689337438 0.29575717678033603 0.004896882985104336 -0.6878161234865865
118500000.0 -0.018096813799105507 -0.6826840429136516 0.20655741035797 0.29165450803172427 0.4057697017204781 0.19551476744108698 0.4057697017205164 0.19551476744114946
 0.20655741035796998 0.29165450803172416 -0.018096813798903724 -0.6826840429135532 0.40576970172052196 0.19551476744116125 0.4057697017205767 0.1955147674412204
 0.40576970172047794 0.19551476744108698 0.4057697017205221 0.19551476744116136 0.0022046448684645203 -0.6869230887809504 0.18625595169039633 0.2958935538990162
 0.4057697017205162 0.19551476744114926 0.40576970172057636 0.19551476744122023 0.18625595169039616 0.29589355389901595 0.00220464486862624 -0.6869230887808607
119000000.0 -0.02073592405823489 -0.6817060320496697 0.20791211761724085 0.29170312714612934 0.4064119032204071 0.19500145245189465 0.40641190322044574 0.1950014524519571
 0.20791211761724088 0.2917031271461292 -0.02073592405803294 -0.6817060320495718 0.40641190322045145 0.19500145245196882 0.4064119032205063 0.19500145245202793
 0.40641190322040693 0.1950014524518945 0.4064119032204516 0.19500145245196884 -0.00046971358557938204 -0.6860248999210464 0.18764590714458151 0.2960219950174986
 0.40641190322044546 0.19500145245195696 0.406411903220506 0.1950014524520279 0.18764590714458135 0.2960219950174985 -0.0004697135854172601 -0.6860248999209565
119500000.0 -0.023356798787059062 -0.6807236991411 0.20926068110426915 0.2917446110814519 0.4070480588413049 0.19448954402994967 0.4070480588413436 0.1944895440300121
 0.20926068110426904 0.2917446110814518 -0.023356798786857005 -0.6807236991410022 0.40704805884134937 0.19448954403002397 0.4070480588414044 0.194489544030083
 0.40704805884130457 0.19448954402994958 0.40704805884134954 0.19448954403002394 -0.0031263093735068087 -0.6851216939749005 0.18903019169071286 0.29614260591524505
 0.4070480588413434 0.19448954403001198 0.40704805884140416 0.1944895440300829 0.18903019169071286 0.296142605915245 -0.003126309373344557 -0.685121693974811
120000000.0 -0.025959565849951547 -0.6797371774605668 0.21060309180253342 0.29177906314296287 0.40767823702361816 0.19397905715892827 0.40767823702365763 0.19397905715899075
 0.21060309180253342 0.29177906314296276 -0.025959565849748973 -0.6797371774604691 0.4076782370236632 0.1939790571590026 0.40767823702371864 0.19397905715906158
 0.40767823702361816 0.19397905715892838 0.4076782370236634 0.19397905715900274 -0.005765259167783043 -0.68421360574966 0.19040878512036122 0.2962554914320493
 0.4076782370236573 0.19397905715899064 0.40767823702371847 0.19397905715906155 0.1904087851203611 0.2962554914320491 -0.005765259167620343 -0.684213605749571
120500000.0 -0.028544352620905235 -0.678746597941725 0.21193934186790522 0.291806585582213 0.40830250537640883 0.19347000617988327 0.4083025053764483 0.19347000617994595
 0.21193934186790522 0.29180658558221295 -0.02854435262070244 -0.6787465979416277 0.40830250537645413 0.19347000617995772 0.40830250537650997 0.19347000618001664
 0.4083025053764086 0.19347000617988333 0.4083025053764542 0.19347000617995772 -0.008386679303262362 -0.6833007678242927 0.1917816685502584 0.29636075546477375
 0.4083025053764482 0.19347000617994575 0.4083025053765097 0.19347000618001653 0.1917816685502583 0.2963607554647735 -0.008386679303099253 -0.6833007678242038
121000000.0 -0.031111285971083785 -0.6777520892151402 0.21326942459835013 0.29182727959793414 0.4089209306862753 0.19296240480873114 0.4089209306863151 0.1929624048087938
 0.21326942459835008 0.2918272795979341 -0.03111128597088063 -0.677752089215043 0.4089209306863209 0.19296240480880564 0.4089209306863769 0.19296240480886453
 0.408920930686275 0.19296240480873111 0.40892093068632096 0.19296240480880555 -0.010990685763935791 -0.6823833105818052 0.19314882439119824 0.29645850096459214
 0.40892093068631485 0.19296240480879365 0.4089209306863765 0.19296240480886442 0.19314882439119813 0.29645850096459203 -0.010990685763772346 -0.6823833105817164
121500000.0 -0.03366049225690497 -0.6767537776437001 0.21459333440419193 0.29184124533735467 0.40953357892626463 0.1924562661533018 0.4095335789263048 0.19245626615336456
 0.21459333440419184 0.29184124533735456 -0.033660492256701514 -0.6767537776436034 0.40953357892631065 0.19245626615337638 0.4095335789263668 0.19245626615343536
 0.4095335789262645 0.19245626615330194 0.4095335789263108 0.19245626615337647 -0.013577394170176211 -0.6814613622410717 0.19451023631745923 0.2965488299347191
 0.4095335789263045 0.19245626615336442 0.40953357892636666 0.19245626615343528 0.1945102363174591 0.29654882993471887 -0.013577394170012448 -0.6814613622409831
122000000.0 -0.036192097308645525 -0.6757517873575659 0.2159110667789346 0.29184858189790525 0.41014051526476325 0.19195160272996054 0.4101405152648035 0.19195160273002326
 0.21591106677893465 0.29184858189790513 -0.03619209730844178 -0.6757517873574697 0.4101405152648096 0.19195160273003492 0.41014051526486595 0.19195160273009387
 0.41014051526476303 0.19195160272996045 0.4101405152648096 0.19195160273003498 -0.016146919766461734 -0.6805350488882737 0.19586588923674678 0.2966318434286055
 0.4101405152648033 0.19195160273002312 0.4101405152648657 0.19195160273009385 0.1958658892367467 0.2966318434286054 -0.01614691976629776 -0.6805350488881848
122500000.0 -0.03870622641955252 -0.6747462402886616 0.21722261827063757 0.29184938732930277 0.4107418040743649 0.1914484264798106 0.4107418040744056 0.19144842647987334
 0.21722261827063757 0.2918493873293027 -0.03870622641934828 -0.6747462402885654 0.41074180407441174 0.19144842647988514 0.41074180407446836 0.19144842647994395
 0.41074180407436467 0.19144842647981059 0.41074180407441174 0.1914484264798851 -0.018699377409570686 -0.6796044945079539 0.19721576926065174 0.29670764154858775
 0.4107418040744054 0.19144842647987317 0.4107418040744681 0.19144842647994392 0.19721576926065165 0.2967076415485877 -0.018699377409406328 -0.6796044945078654
123000000.0 -0.04120300433544534 -0.6737372562047084 0.2185279864538344 0.291843758635992 0.4113375089407125 0.19094674878449017 0.4113375089407533 0.1909467487845528
 0.21852798645383437 0.29184375863599193 -0.04120300433524089 -0.6737372562046122 0.4113375089407595 0.19094674878456477 0.41133750894081633 0.19094674878462345
 0.41133750894071214 0.19094674878449014 0.41133750894075954 0.19094674878456475 -0.021234881557232493 -0.6786698210136897 0.19855986367561765 0.29677632344496624
 0.4113375089407531 0.19094674878455273 0.41133750894081605 0.19094674878462345 0.1985598636756175 0.29677632344496613 -0.021234881557067944 -0.6786698210136015
123500000.0 -0.04368255524479656 -0.672724952742807 0.21982716990199386 0.29183179177993246 0.4119276926713081 0.19044658048157018 0.4119276926713492 0.19044658048163296
 0.21982716990199377 0.29183179177993224 -0.043682555244591734 -0.6727249527427112 0.41192769267135537 0.1904465804816448 0.4119276926714126 0.1904465804817036
 0.4119276926713077 0.19044658048157012 0.4119276926713554 0.19044658048164487 -0.02375354625722497 -0.6777311482783837 0.19989816091441798 0.29683798731550204
 0.4119276926713489 0.19044658048163282 0.41192769267141227 0.1904465804817036 0.19989816091441792 0.296837987315502 -0.023753546257060026 -0.6777311482782956
124000000.0 -0.04614500276927785 -0.6717094454425705 0.22112016816051194 0.2918135816837105 0.41251241730428917 0.18994793187956385 0.4125124173043306 0.18994793187962655
 0.221120168160512 0.2918135816837105 -0.04614500276907278 -0.6717094454424749 0.412512417304337 0.18994793187963852 0.4125124173043943 0.18994793187969708
 0.412512417304289 0.18994793187956382 0.412512417304337 0.18994793187963846 -0.026255485136903584 -0.6767885941641787 0.20123065052813377 0.2968927304053117
 0.4125124173043304 0.1899479318796264 0.412512417304394 0.18994793187969708 0.2012306505281336 0.2968927304053116 -0.02625548513673864 -0.6767885941640909
124500000.0 -0.048590469954755904 -0.6706908477788129 0.22240698172023293 0.2917892222339679 0.4130917441171675 0.1894508127725572 0.41309174411720917 0.1894508127726201
 0.22240698172023288 0.29178922223396786 -0.048590469954550415 -0.6706908477787173 0.41309174411721555 0.1894508127726319 0.41309174411727323 0.18945081277269069
 0.41309174411716726 0.18945081277255718 0.4130917441172157 0.18945081277263187 -0.028740811393156648 -0.6758422745519982 0.2025573231586293 0.29694064900714606
 0.413091744117209 0.18945081277261994 0.413091744117273 0.18945081277269063 0.20255732315862923 0.296940649007146 -0.02874081139299105 -0.6758422745519105
125000000.0 -0.05101907926273046 -0.6696692711937947 0.22368761199148945 0.2917588062851247 0.41366573363552595 0.18895523245447085 0.4136657336355678 0.18895523245453366
 0.22368761199148945 0.29175880628512446 -0.05101907926252475 -0.6696692711936996 0.41366573363557435 0.1889552324545455 0.41366573363563225 0.18895523245460422
 0.41366573363552567 0.18895523245447063 0.41366573363557446 0.18895523245454549 -0.031209637782767273 -0.6748923033707139 0.20387817051152213 0.2969818384620365
 0.41366573363556763 0.18895523245453358 0.41366573363563214 0.18895523245460424 0.20387817051152207 0.2969818384620365 -0.03120963778260129 -0.6748923033706262
125500000.0 -0.053430952562193816 -0.6686448251290341 0.22496206127865778 0.2917224256633891 0.4142344456416732 0.18846119973295916 0.4142344456417156 0.18846119973302214
 0.22496206127865773 0.29172242566338896 -0.053430952561988085 -0.6686448251289396 0.41423444564172185 0.1884611997330338 0.4142344456417802 0.1884611997330925
 0.41423444564167294 0.18846119973295916 0.414234445641722 0.18846119973303385 -0.03366207661318075 -0.6739387926259466 0.20519318532964026 0.29701639316029427
 0.41423444564171535 0.18846119973302194 0.41423444564177986 0.1884611997330924 0.20519318532964012 0.2970163931602941 -0.03366207661301452 -0.6739387926258593
126000000.0 -0.055826211121911225 -0.6676176170566809 0.2262303327552191 0.29168017117103706 0.4147979391832508 0.18796872294295955 0.41479793918329355 0.18796872294302253
 0.22623033275521892 0.2916801711710369 -0.055826211121705105 -0.6676176170565864 0.4147979391832997 0.1879687229430342 0.4147979391833582 0.18796872294309286
 0.4147979391832507 0.1879687229429595 0.41479793918330005 0.18796872294303424 -0.036098239733659075 -0.6729818524284994 0.2065023613669628 0.2970444065428482
 0.4147979391832932 0.18796872294302236 0.41479793918335806 0.18796872294309283 0.2065023613669626 0.297044406542848 -0.03609823973349258 -0.6729818524284121
126500000.0 -0.05820497560309618 -0.6665877525104634 0.22749243043932252 0.29163213259094806 0.4153562725817913 0.18747780995989627 0.41535627258183416 0.18747780995995936
 0.22749243043932246 0.29163213259094795 -0.058204975602889765 -0.6665877525103692 0.41535627258184055 0.18747780995997101 0.41535627258189944 0.18747780996002963
 0.41535627258179103 0.1874778099598963 0.4153562725818407 0.18747780995997104 -0.03851823852681595 -0.6720215910224283 0.20780569336303795 0.2970659711029057
 0.41535627258183405 0.1874778099599591 0.41535627258189917 0.18747780996002955 0.20780569336303786 0.2970659711029055 -0.038518238526649144 -0.6720215910223415
127000000.0 -0.06056736605248363 -0.6655553351162089 0.22874835916984154 0.2915783986913863 0.41590950344122507 0.18698846821255075 0.41590950344126826 0.18698846821261367
 0.22874835916984146 0.29157839869138624 -0.06056736605227684 -0.6655553351161149 0.4159095034412748 0.1869884682126256 0.41590950344133365 0.18698846821268406
 0.4159095034412249 0.18698846821255075 0.41590950344127486 0.18698846821262546 -0.040922183900522345 -0.6710581148127545 0.20910317701787595 0.2970811783879247
 0.4159095034412679 0.18698846821261356 0.4159095034413335 0.186988468212684 0.20910317701787573 0.2970811783879245 -0.0409221839003554 -0.6710581148126675
127500000.0 -0.06291350189577737 -0.6645204666219412 0.2299981245829175 0.2915190572310141 0.41645768865633376 0.186500704695604 0.41645768865637717 0.18650070469566699
 0.22999812458291746 0.291519057231014 -0.0629135018955704 -0.6645204666218474 0.4164576886563838 0.18650070469567864 0.416457688656443 0.18650070469573715
 0.41645768865633354 0.18650070469560404 0.4164576886563839 0.18650070469567875 -0.04331018628017139 -0.6700915283928166 0.21039480896730703 0.29709011900188254
 0.4164576886563769 0.1865007046956667 0.4164576886564426 0.1865007046957371 0.21039480896730695 0.2970901190018823 -0.04331018628000426 -0.6700915283927302
128000000.0 -0.0652435019314703 -0.6634832469275624 0.23124173308898366 0.2914541949641244 0.41700088442114686 0.18601452598186055 0.4170008844211905 0.18601452598192358
 0.23124173308898355 0.2914541949641242 -0.06524350193126299 -0.663483246927469 0.4170008844211971 0.18601452598193527 0.41700088442125643 0.18601452598199383
 0.41700088442114663 0.18601452598186055 0.4170008844211972 0.1860145259819353 -0.04568235560129403 -0.6691219345712734 0.21168058675880305 0.29709288260782807
 0.41700088442119027 0.1860145259819235 0.4170008844212562 0.18601452598199378 0.2116805867588029 0.2970928826078279 -0.04568235560112649 -0.6691219345711868
128500000.0 -0.06755748432501753 -0.6624437741141207 0.23247919185026208 0.29138389764608236 0.4175391462372811 0.1855299382341616 0.417539146237325 0.1855299382342247
 0.2324791918502619 0.2913838976460823 -0.06755748432481022 -0.6624437741140274 0.4175391462373316 0.18552993823423647 0.4175391462373912 0.1855299382342949
 0.41753914623728083 0.1855299382341617 0.41753914623733174 0.18552993823423636 -0.048038801302515026 -0.6681494343987511 0.21296050882775497 0.2970895579307054
 0.4175391462373248 0.1855299382342246 0.417539146237391 0.18552993823429487 0.21296050882775486 0.2970895579307053 -0.048038801302347146 -0.6681494343986648
129000000.0 -0.06985556660336288 -0.6614021444726662 0.23371050875872762 0.2913082500389644 0.4180725289222203 0.18504694721699427 0.4180725289222645 0.18504694721705728
 0.23371050875872756 0.29130825003896427 -0.0698555666031551 -0.6614021444725732 0.41807252892227126 0.18504694721706902 0.4180725289223312 0.18504694721712742
 0.41807252892222013 0.18504694721699433 0.41807252892227137 0.1850469472170691 -0.05037963231884143 -0.6671741271941468 0.21423457447420186 0.29708023276043766
 0.4180725289222642 0.18504694721705714 0.4180725289223309 0.18504694721712733 0.21423457447420166 0.29708023276043743 -0.05037963231867341 -0.6671741271940608
129500000.0 -0.0721378656497961 -0.6603584525327046 0.23493569241453213 0.2912273359173835 0.4186010866175345 0.18456555830780505 0.41860108661757894 0.18456555830786806
 0.23493569241453205 0.2912273359173833 -0.07213786564958811 -0.6603584525326117 0.4186010866175857 0.1845655583078798 0.4186010866176458 0.1845655583079381
 0.4186010866175341 0.18456555830780497 0.4186010866175857 0.18456555830787977 -0.05270495707527365 -0.6661961105705854 0.2155027838400051 0.2970649939552568
 0.4186010866175786 0.1845655583078678 0.41860108661764556 0.184565558307938 0.215502783840005 0.2970649939552567 -0.05270495707510547 -0.6661961105704997
130000000.0 -0.07440449769914274 -0.6593127910902474 0.23615475210487955 0.2911412380744895 0.4191248727970336 0.18408577650802432 0.41912487279707833 0.1840857765080873
 0.23615475210487955 0.29114123807448944 -0.07440449769893435 -0.6593127910901551 0.4191248727970853 0.18408577650809904 0.41912487279714566 0.18408577650815733
 0.4191248727970334 0.18408577650802427 0.4191248727970854 0.18408577650809907 -0.05501488348073012 -0.6652154804610357 0.21676513788646257 0.29704392744527064
 0.4191248727970781 0.18408577650808722 0.4191248727971454 0.18408577650815733 0.21676513788646237 0.29704392744527053 -0.05501488348056156 -0.66521548046095
130500000.0 -0.07665557833326758 -0.6582652512354654 0.23736769778334943 0.29105003832813775 0.41964394027486074 0.18360760645381016 0.4196439402749058 0.18360760645387314
 0.23736769778334935 0.2910500383281376 -0.07665557833305885 -0.6582652512353733 0.4196439402749126 0.18360760645388502 0.4196439402749733 0.18360760645394317
 0.41964394027486057 0.18360760645381013 0.4196439402749129 0.18360760645388496 -0.05730951892227926 -0.6642323311435885 0.2180216383723567 0.2970171182362535
 0.4196439402749055 0.18360760645387295 0.4196439402749731 0.1836076064539431 0.21802163837235655 0.29701711823625326 -0.057309518922110496 -0.664232331143503
131000000.0 -0.07889122247688739 -0.6572159223799495 0.23857454004965697 0.2909538175272107 0.42015834121351636 0.1831310524265166 0.42015834121356155 0.18313105242657962
 0.23857454004965697 0.29095381752721056 -0.07889122247667828 -0.6572159223798575 0.4201583412135687 0.18313105242659147 0.4201583412136294 0.18313105242664954
 0.42015834121351625 0.18313105242651664 0.4201583412135689 0.18313105242659147 -0.0595889702596657 -0.6632467552663983 0.21927228783243113 0.2969846504136522
 0.4201583412135613 0.18313105242657948 0.42015834121362927 0.1831310524266496 0.21927228783243102 0.29698465041365213 -0.05958897025949682 -0.663246755266313
131500000.0 -0.08111154439368239 -0.6561648922835825 0.2397752901298482 0.29085265555808965 0.4206681271318181 0.1826561183628947 0.42066812713186374 0.18265611836295773
 0.23977529012984816 0.2908526555580896 -0.08111154439347328 -0.6561648922834908 0.42066812713187074 0.18265611836296944 0.42066812713193186 0.18265611836302764
 0.420668127131818 0.1826561183628947 0.4206681271318708 0.18265611836296952 -0.0618533438201285 -0.662258843872296 0.22051708955628982 0.2969466071467959
 0.42066812713186347 0.18265611836295756 0.4206681271319316 0.18265611836302745 0.22051708955628968 0.29694660714679566 -0.06185334381995933 -0.6622588438722111
132000000.0 -0.08331665768269796 -0.6551122470810259 0.24096995985691735 0.290746631351261 0.4211733489127911 0.18218280786503152 0.42117334891283686 0.18218280786509453
 0.24096995985691727 0.2907466313512609 -0.08331665768248878 -0.6551122470809341 0.42117334891284397 0.18218280786510635 0.4211733489129052 0.1821828078651644
 0.4211733489127909 0.18218280786503155 0.421173348912844 0.1821828078651063 -0.064102745393498 -0.6612686864230695 0.22175604756771278 0.2969030706932976
 0.42117334891283664 0.1821828078650945 0.4211733489129049 0.18218280786516433 0.22175604756771267 0.29690307069329747 -0.06410274539332839 -0.6612686864229845
132500000.0 -0.08550667527502478 -0.6540580713078255 0.24215856165184516 0.29063582288805356 0.42167405681149 0.18171112421003582 0.42167405681153614 0.1817111242100989
 0.24215856165184524 0.29063582288805356 -0.08550667527481501 -0.6540580713077339 0.42167405681154335 0.1817111242101105 0.42167405681160486 0.18171112421016858
 0.42167405681149006 0.18171112421003577 0.4216740568115435 0.1817111242101105 -0.06633728022756802 -0.6602763708234215 0.22298916660438378 0.2968541224036425
 0.42167405681153614 0.18171112421009883 0.42167405681160464 0.18171112421016863 0.22298916660438367 0.29685412240364245 -0.066337280227398 -0.6602763708233365
133000000.0 -0.08768170943075318 -0.6530024479261418 0.243341108505048 0.2905203072074958 0.4221703004627525 0.18124107035947412 0.42217030046279874 0.18124107035953718
 0.24334110850504795 0.29052030720749555 -0.08768170943054329 -0.6530024479260507 0.42217030046280607 0.18124107035954873 0.42217030046286763 0.18124107035960677
 0.4221703004627523 0.18124107035947393 0.4221703004628061 0.18124107035954864 -0.06855705302373159 -0.6592819834446032 0.22421645209802182 0.2967998427259496
 0.4221703004627985 0.18124107035953696 0.42217030046286735 0.18124107035960674 0.22421645209802177 0.2967998427259496 -0.0685570530235615 -0.6592819834445184
133500000.0 -0.08984187173619104 -0.6519454583501096 0.24451761395823224 0.2904001604132844 0.42266212888887916 0.1807726489685648 0.42266212888892574 0.18077264896862782
 0.2445176139582322 0.2904001604132843 -0.08984187173598093 -0.6519454583500187 0.4226621288889329 0.1807726489686395 0.42266212888899485 0.18077264896869755
 0.42266212888887894 0.18077264896856476 0.42266212888893295 0.18077264896863954 -0.07076216793287692 -0.6582856091477309 0.22543791015491327 0.2967403112108982
 0.4226621288889255 0.1807726489686277 0.4226621288889945 0.18077264896869744 0.22543791015491318 0.2967403112108981 -0.07076216793270645 -0.6582856091476466
134000000.0 -0.09198727310133764 -0.6508871824708253 0.24568809208664638 0.2902754576808585 0.42314959050724504 0.18030586239513624 0.4231495905072919 0.18030586239519933
 0.24568809208664621 0.29027545768085844 -0.0919872731011273 -0.6508871824707345 0.42314959050729917 0.18030586239521113 0.42314959050736134 0.18030586239526902
 0.42314959050724477 0.18030586239513627 0.42314959050729933 0.18030586239521107 -0.07295272855153305 -0.6572873313067852 0.22665354753683703 0.2966756065168112
 0.4231495905072916 0.18030586239519925 0.4231495905073611 0.180305862395269 0.2266535475368368 0.29667560651681096 -0.07295272855136224 -0.6572873313067007
134500000.0 -0.09411802375760289 -0.6498276986809735 0.24685255748172535 0.2901462732645708 0.42363273313783795 0.17984071270835517 0.42363273313788513 0.17984071270841823
 0.24685255748172522 0.2901462732645707 -0.09411802375739226 -0.649827698680883 0.4236327331378924 0.1798407127084299 0.4236327331379548 0.17984071270848787
 0.42363273313783767 0.1798407127083552 0.42363273313789246 0.1798407127084299 -0.07512883791825925 -0.6562872318312978 0.22786337164237672 0.2966058064148879
 0.42363273313788485 0.17984071270841806 0.42363273313795446 0.17984071270848775 0.22786337164237666 0.29660580641488776 -0.0751288379180883 -0.6562872318312138
135000000.0 -0.09623423325577012 -0.6487670838990939 0.2480110252341199 0.2900126805049465 0.42411160401072395 0.1793772016972284 0.4241116040107713 0.1793772016972915
 0.24801102523411978 0.2900126805049465 -0.09623423325555935 -0.6487670838990036 0.4241116040107786 0.17937720169730312 0.4241116040108411 0.17937720169736102
 0.42411160401072373 0.17937720169722846 0.42411160401077863 0.1793772016973031 -0.07729059851027226 -0.6552853911887301 0.2290673904886169 0.29653098779457565
 0.424111604010771 0.1793772016972914 0.4241116040108409 0.179377201697361 0.22906739048861685 0.2965309877945756 -0.07729059851010099 -0.6552853911886461
135500000.0 -0.09833601046418855 -0.6477054135934918 0.24916351091710415 0.28987475183602757 0.4245862497734407 0.1789153308788882 0.4245862497734884 0.17891533087895112
 0.249163510917104 0.28987475183602734 -0.09833601046397737 -0.6477054135934016 0.42458624977349574 0.17891533087896286 0.4245862497735585 0.1789153308790205
 0.42458624977344045 0.17891533087888808 0.42458624977349585 0.1789153308789628 -0.07943811224030331 -0.6542818884265449 0.23026561269321394 0.2964512266690733
 0.4245862497734879 0.17891533087895087 0.4245862497735582 0.17891533087902048 0.23026561269321377 0.29645122666907314 -0.07943811224013213 -0.6542818884264612
136000000.0 -0.10042346356719187 -0.646642761805798 0.2503100305703546 0.289732558792789 0.42505671649831667 0.1784551015066612 0.4250567164983646 0.17845510150672422
 0.2503100305703546 0.2897325587927889 -0.10042346356698051 -0.646642761805708 0.425056716498372 0.178455101506736 0.42505671649843507 0.17845510150679356
 0.4250567164983165 0.17845510150666127 0.4250567164983721 0.17845510150673596 -0.08157148045367844 -0.6532768011939744 0.23145804745683637 0.29636659818095845
 0.42505671649836435 0.17845510150672408 0.42505671649843474 0.17845510150679356 0.23145804745683618 0.29636659818095834 -0.0815714804535069 -0.6532768011938909
136500000.0 -0.10249670006373408 -0.6455792011741796 0.25145060068409547 0.28958617201862946 0.42552304968971716 0.177996514577933 0.42552304968976534 0.177996514577996
 0.25145060068409536 0.28958617201862935 -0.10249670006352252 -0.64557920117409 0.4255230496897727 0.17799651457800775 0.42552304968983595 0.17799651457806534
 0.425523049689717 0.17799651457793292 0.4255230496897728 0.17799651457800755 -0.08369080392561623 -0.6522702057634909 0.23264470454597241 0.29627717660793335
 0.42552304968976495 0.17799651457799595 0.4255230496898357 0.17799651457806534 0.23264470454597233 0.29627717660793335 -0.08369080392544423 -0.6522702057634073
137000000.0 -0.10455582676623781 -0.6445148029562112 0.2525852381836015 0.28943566127291903 0.42598529429121534 0.1775395708418051 0.42598529429126375 0.177539570841868
 0.25258523818360157 0.28943566127291903 -0.10455582676602561 -0.6445148029561216 0.42598529429127135 0.1775395708418798 0.42598529429133486 0.17753957084193728
 0.42598529429121507 0.177539570841805 0.4259852942912713 0.1775395708418797 -0.08579618285873573 -0.6512621770519779 0.2338255942760949 0.2961830353686784
 0.42598529429126347 0.17753957084186778 0.42598529429133447 0.17753957084193717 0.23382559427609478 0.29618303536867824 -0.08579618285856382 -0.6512621770518947
137500000.0 -0.10660094979964324 -0.6434496370514039 0.25371396041405564 0.28928109543860886 0.42644349469269066 0.17708427080655736 0.4264434946927393 0.17708427080662034
 0.25371396041405564 0.2892810954386088 -0.106600949799431 -0.6434496370513147 0.42644349469274706 0.1770842708066321 0.42644349469281057 0.17708427080668954
 0.42644349469269055 0.17708427080655723 0.4264434946927471 0.177084270806632 -0.08788771688077118 -0.6502527886416115 0.23500072749517903 0.2960842470288092
 0.426443494692739 0.17708427080662012 0.4264434946928104 0.17708427080668945 0.23500072749517886 0.29608424702880914 -0.0878877168805989 -0.6502527886415286
138000000.0 -0.10863217460065869 -0.6423837720234004 0.2548367851257501 0.28912254252988895 0.42689769473735106 0.17663061474691646 0.4268976947373999 0.17663061474697941
 0.2548367851257501 0.2891225425298888 -0.10863217460044632 -0.6423837720233116 0.4268976947374076 0.17663061474699102 0.4268976947374716 0.1766306147470485
 0.42689769473735084 0.17663061474691635 0.42689769473740774 0.17663061474699107 -0.08996550504248223 -0.649242112800449 0.23617011556756878 0.2959808833069301
 0.42689769473739975 0.17663061474697922 0.4268976947374713 0.17663061474704841 0.23617011556756862 0.29598088330692995 -0.08996550504230973 -0.6492421128003661
138500000.0 -0.11064960591719915 -0.6413172751218407 0.25595373045962955 0.2889600696998927 0.42734793772868135 0.17617860271113564 0.42734793772873053 0.17617860271119867
 0.25595373045962944 0.2889600696998925 -0.11064960591698672 -0.6413172751217521 0.4273479377287382 0.17617860271121022 0.4273479377288024 0.17617860271126762
 0.42734793772868107 0.17617860271113578 0.42734793772873836 0.1761786027112103 -0.09202964581575926 -0.648230220502731 0.23733377035818456 0.2958730150807763
 0.42734793772873025 0.17617860271119845 0.42734793772880203 0.17617860271126767 0.23733377035818437 0.295873015080776 -0.09202964581558658 -0.6482302205026486
139000000.0 -0.11265334780801069 -0.6402502123038987 0.25706481493316746 0.28879374324844126 0.4277942664373177 0.17572823452789146 0.4277942664373671 0.17572823452795439
 0.2570648149331673 0.2887937432484411 -0.11265334780779808 -0.6402502123038103 0.4277942664373749 0.17572823452796613 0.4277942664374391 0.17572823452802347
 0.42779426643731755 0.17572823452789155 0.427794266437375 0.17572823452796613 -0.09408023709191599 -0.6472171814489037 0.23849170421706786 0.29576071239343904
 0.4277942664373668 0.17572823452795422 0.42779426643743884 0.1757282345280233 0.23849170421706767 0.2957607123934388 -0.09408023709174321 -0.6472171814488213
139500000.0 -0.11464350364247194 -0.6391826482554992 0.2581700574265705 0.28862362862982327 0.42823672310784644 0.17527950981300164 0.4282367231078961 0.17527950981306467
 0.2581700574265705 0.28862362862982316 -0.11464350364225886 -0.639182648255411 0.4282367231079039 0.1752795098130762 0.4282367231079684 0.17527950981313345
 0.4282367231078463 0.17527950981300167 0.428236723107904 0.1752795098130762 -0.0961173761801618 -0.6462030640853534 0.2396439299642555 0.2956440444596703
 0.4282367231078959 0.17527950981306437 0.4282367231079682 0.17527950981313334 0.23964392996425543 0.29564404445967 -0.0961173761799887 -0.6462030640852713
140000000.0 -0.1166201761005699 -0.6381146464122127 0.25926947716930404 0.2884497904606047 0.42867534946552893 0.17483242797596885 0.42867534946557867 0.17483242797603174
 0.2592694771693039 0.28844979046060465 -0.11662017610035687 -0.6381146464121248 0.42867534946558644 0.17483242797604345 0.42867534946565106 0.1748324279761007
 0.4286753494655285 0.1748324279759688 0.4286753494655865 0.17483242797604331 -0.09814115980625199 -0.6451879356238712 0.24079046087498043 0.29552307967225583
 0.42867534946557834 0.17483242797603168 0.42867534946565083 0.17483242797610057 0.24079046087498052 0.2955230796722558 -0.0981411598060785 -0.6451879356237892
140500000.0 -0.11858346717304244 -0.637046268979839 0.2603630937269322 0.28827229252746295 0.4291101867229503 0.17438698822635376 0.4291101867230005 0.1743869882264167
 0.2603630937269322 0.28827229252746284 -0.11858346717282912 -0.6370462689797515 0.4291101867230084 0.1743869882264282 0.42911018672307333 0.17438698822648538
 0.42911018672295026 0.17438698822635373 0.42911018672300855 0.17438698822642823 -0.10015168411130693 -0.6441718620608395 0.24193131066519175 0.2953978856084564
 0.4291101867230003 0.17438698822641646 0.42911018672307316 0.17438698822648532 0.24193131066519155 0.29539788560845626 -0.10015168411113334 -0.6441718620607577
141000000.0 -0.12053347816167864 -0.635977576954677 0.2614509269882717 0.2880911977950441 0.42954127558659844 0.1739431895799831 0.4295412755866489 0.17394318958004606
 0.2614509269882715 0.288091197795044 -0.1205334781614652 -0.6359775769545895 0.42954127558665667 0.17394318958005764 0.4295412755867218 0.17394318958011487
 0.42954127558659816 0.17394318957998306 0.4295412755866567 0.1739431895800575 -0.10214904465080064 -0.643154908196149 0.2430664934773882 0.2952685290365086
 0.42954127558664856 0.17394318958004598 0.42954127558672156 0.17394318958011482 0.24306649347738818 0.2952685290365085 -0.10214904465062642 -0.643154908196067
141500000.0 -0.12247030967977911 -0.6349086301434914 0.262532997152844 0.28790656841383416 0.42996865626336195 0.17350103086499633 0.4299686562634127 0.17350103086505916
 0.26253299715284406 0.28790656841383394 -0.12247030967956517 -0.6349086301434043 0.4299686562634207 0.17350103086507057 0.42996865626348607 0.17350103086512772
 0.4299686562633618 0.17350103086499616 0.42996865626342073 0.17350103086507063 -0.10413333639370302 -0.642137137651846 0.24419602386676295 0.2951350759221812
 0.4299686562634123 0.1735010308650589 0.4299686562634857 0.1735010308651277 0.24419602386676276 0.295135075922181 -0.1041333363935289 -0.6421371376517643
142000000.0 -0.12439406165276254 -0.6338394871831728 0.26360932471863074 0.2877184657280439 0.4303923684669603 0.17306051072773318 0.43039236846701107 0.17306051072779605
 0.2636093247186307 0.2877184657280437 -0.12439406165254843 -0.6338394871830859 0.4303923684670192 0.1730605107278075 0.4303923684670847 0.17306051072786463
 0.43039236846696016 0.17306051072773315 0.4303923684670194 0.17306051072780762 -0.1061046537217863 -0.6411186128905184 0.24531991678764922 0.294997591435382
 0.43039236846701084 0.1730605107277959 0.4303923684670845 0.17306051072786466 0.24531991678764903 0.294997591435382 -0.10610465372161194 -0.6411186128904369
142500000.0 -0.12630483331892023 -0.6327702055601021 0.26467993047011723 0.2875269502835013 0.43081245142429564 0.1726216276384701 0.4308124514243466 0.1726216276385329
 0.2646799304701171 0.2875269502835012 -0.1263048333187058 -0.6327702055600152 0.4308124514243547 0.17262162763854452 0.43081245142442043 0.17262162763860153
 0.4308124514242953 0.17262162763847008 0.4308124514243547 0.17262162763854455 -0.10806309042907479 -0.6400993952334175 0.24643818758026645 0.2948561399568095
 0.43081245142434643 0.17262162763853284 0.43081245142442026 0.17262162763860148 0.24643818758026634 0.2948561399568093 -0.10806309042890004 -0.6400993952333363
143000000.0 -0.1282027232303074 -0.631700841629218 0.2657448354666265 0.28733208183554937 0.43122894388173416 0.17218437989700497 0.4312289438817856 0.1721843798970679
 0.2657448354666264 0.28733208183554926 -0.128202723230093 -0.6317008416291314 0.43122894388179356 0.1721843798970794 0.4312289438818596 0.1721843798971363
 0.431228943881734 0.17218437989700489 0.4312289438817937 0.17218437989707924 -0.11000873972144493 -0.6390795448783217 0.24755085195775856 0.2947107850846456
 0.4312289438817854 0.1721843798970676 0.43122894388185934 0.1721843798971362 0.2475508519577584 0.29471078508464543 -0.11000873972126993 -0.6390795448782406
143500000.0 -0.13008782925377202 -0.6306314506327949 0.26680406103093207 0.2871339193569435 0.4316418841113133 0.1717487656380971 0.43164188411136495 0.17174876563815983
 0.266804061030932 0.2871339193569434 -0.13008782925355694 -0.6306314506327082 0.4316418841113732 0.1717487656381715 0.4316418841114393 0.17174876563822827
 0.43164188411131305 0.17174876563809702 0.4316418841113732 0.17174876563817146 -0.1119416942163653 -0.6380591209171449 0.24865792599352002 0.2945615896412864
 0.43164188411136456 0.17174876563815963 0.43164188411143894 0.1717487656382283 0.24865792599351993 0.29456158964128626 -0.11194169421619024 -0.6380591209170641
144000000.0 -0.1319602485721107 -0.6295620867189313 0.26785762873814734 0.28693252104574696 0.4320513099168748 0.17131478283676468 0.4320513099169267 0.17131478283682747
 0.2678576287381472 0.2869325210457468 -0.13196024857189584 -0.6295620867188452 0.43205130991693474 0.1713147828368389 0.4320513099170012 0.17131478283689575
 0.4320513099168747 0.17131478283676466 0.432051309916935 0.17131478283683899 -0.11386204594277444 -0.6370381813532943 0.24975942610880594 0.2944086156801027
 0.43205130991692636 0.17131478283682716 0.43205130991700097 0.1713147828368956 0.24975942610880583 0.2944086156801024 -0.11386204594259935 -0.6370381813532137
144500000.0 -0.13382007768535328 -0.6284928029597587 0.26890556040488534 0.28672794433321935 0.43245725864012674 0.170882429313443 0.4324572586401788 0.1708824293135058
 0.2689055604048852 0.28672794433321924 -0.13382007768513823 -0.6284928029596726 0.4324572586401871 0.17088242931351733 0.4324572586402537 0.17088242931357409
 0.4324572586401265 0.170882429313443 0.43245725864018725 0.1708824293135173 -0.1157698863410913 -0.6360167831187755 0.250855369060618 0.29425192449222903
 0.4324572586401785 0.17088242931350558 0.43245725864025336 0.170882429313574 0.25085536906061784 0.2942519244922289 -0.11576988634091574 -0.6360167831186949
145000000.0 -0.13566741241216476 -0.6274236513693652 0.2699478780786838 0.28652024589169645 0.4328597671666331 0.17045170273900878 0.4328597671666853 0.17045170273907148
 0.2699478780786838 0.28652024589169633 -0.13566741241194935 -0.6274236513692796 0.4328597671666937 0.17045170273908303 0.43285976716676045 0.17045170273913968
 0.43285976716663277 0.17045170273900878 0.43285976716669367 0.170451702739083 -0.11766530626335156 -0.6349949820910546 0.2519457719298653 0.2940915766133787
 0.43285976716668506 0.1704517027390714 0.4328597671667601 0.17045170273913965 0.2519457719298651 0.29409157661337854 -0.11766530626317587 -0.6349949820909743
145500000.0 -0.1375023478913655 -0.6263546829214491 0.27098460402768904 0.2863094816424573 0.43325887193173057 0.17002260063967148 0.43325887193178314 0.17002260063973415
 0.270984604027689 0.2863094816424571 -0.13750234789115007 -0.6263546829213638 0.4332588719317913 0.17002260063974559 0.43325887193185825 0.1700226006398022
 0.4332588719317303 0.17002260063967145 0.4332588719317914 0.1700226006397456 -0.11954839597347303 -0.6339728331096754 0.25303065210979103 0.29392763183067616
 0.43325887193178286 0.17002260063973393 0.4332588719318581 0.17002260063980212 0.253030652109791 0.293927631830676 -0.11954839597329713 -0.6339728331095954
146000000.0 -0.13932497858356288 -0.6252859475666956 0.2720157607305958 0.28609570676357543 0.43365460892637553 0.16959512040173663 0.43365460892642843 0.1695951204017994
 0.2720157607305957 0.2860957067635753 -0.13932497858334716 -0.6252859475666104 0.4336546089264367 0.16959512040181093 0.43365460892650387 0.16959512040186747
 0.43365460892637536 0.1695951204017366 0.43365460892643687 0.16959512040181082 -0.12141924514763677 -0.632950389992636 0.2541100272946642 0.29376014918950827
 0.43365460892642804 0.1695951204017991 0.43365460892650354 0.16959512040186733 0.254110027294664 0.2937601491895081 -0.1214192451474605 -0.6329503899925559
146500000.0 -0.14113539827288996 -0.6242174942498876 0.27304137086683533 0.28587897569775284 0.4340470137029189 0.16916925927624468 0.4340470137029719 0.1691692592763073
 0.2730413708668352 0.2858789756977528 -0.141135398272674 -0.6242174942498023 0.4340470137029803 0.1691692592763189 0.43404701370304766 0.16916925927637536
 0.4340470137029188 0.16916925927624468 0.4340470137029804 0.16916925927631885 -0.12327794287478627 -0.6319277055525288 0.25518391546872643 0.2935891870003869
 0.43404701370297166 0.16916925927630716 0.4340470137030474 0.16916925927637527 0.2551839154687262 0.2935891870003868 -0.12327794287460996 -0.6319277055524488
147000000.0 -0.14293370006884776 -0.6231493709267493 0.27406145730700887 0.28565934216013267 0.434436121380811 0.16874501438348669 0.4344361213808642 0.16874501438354936
 0.27406145730700876 0.2856593421601326 -0.14293370006863182 -0.6231493709266642 0.43443612138087256 0.16874501438356088 0.43443612138093995 0.1687450143836173
 0.4344361213808108 0.1687450143834868 0.4344361213808726 0.16874501438356082 -0.12512457765724047 -0.6309048316124465 0.256252334895396 0.29341480284582266
 0.43443612138086385 0.16874501438354914 0.43443612138093973 0.1687450143836171 0.25625233489539573 0.29341480284582244 -0.12512457765706408 -0.6309048316123669
147500000.0 -0.14471997640824946 -0.6220816245805323 0.27507604310356 0.2854368591460875 0.43482196665223577 0.16832238271740171 0.43482196665228917 0.16832238271746439
 0.27507604310355993 0.28543685914608746 -0.1447199764080331 -0.6220816245804475 0.4348219666522977 0.16832238271747585 0.4348219666523655 0.16832238271753214
 0.43482196665223566 0.16832238271740171 0.4348219666522979 0.1683223827174758 -0.12695923741141144 -0.6298818190216559 0.25731530410671655 0.29323705358720387
 0.434821966652289 0.16832238271746422 0.4348219666523651 0.16832238271753217 0.2573153041067163 0.2932370535872038 -0.12695923741123474 -0.6298818190215761
148000000.0 -0.14649431905725563 -0.6210143012383395 0.27608515148168217 0.2852115789389838 0.43520458378767757 0.16790136114985832 0.4352045837877312 0.16790136114992085
 0.2760851514816821 0.28521157893898363 -0.14649431905703886 -0.6210143012382549 0.43520458378773985 0.1679013611499323 0.4352045837878076 0.16790136114998858
 0.43520458378767735 0.16790136114985815 0.4352045837877399 0.16790136114993226 -0.12878200946863194 -0.6288587176710427 0.25837284189305293 0.2930559953716797
 0.43520458378773086 0.1679013611499207 0.43520458378780746 0.1679013611499886 0.2583728418930529 0.29305599537167965 -0.12878200946845508 -0.6288587176709631
148500000.0 -0.1482568191135056 -0.6199474459871978 0.2770888058304556 0.2849835531179158 0.43558400664141583 0.16748194643482225 0.4355840066414696 0.16748194643488487
 0.27708880583045536 0.2849835531179156 -0.14825681911328903 -0.6199474459871134 0.4355840066414782 0.1674819464348964 0.4355840066415461 0.16748194643495262
 0.4355840066414155 0.16748194643482228 0.4355840066414781 0.16748194643489625 -0.13059298057607985 -0.627835576508332 0.25942496729302394 0.29287168363904287
 0.43558400664146935 0.16748194643488473 0.43558400664154606 0.16748194643495254 0.259424967293024 0.29287168363904276 -0.1305929805759026 -0.6278355765082528
149000000.0 -0.15000756700833626 -0.6188811029898789 0.27808702969420945 0.28475283256541145 0.43596026865695364 0.16706413521241603 0.4359602686570077 0.16706413521247854
 0.27808702969420945 0.2847528325654114 -0.15000756700811946 -0.6188811029897947 0.4359602686570163 0.16706413521249 0.4359602686570846 0.16706413521254615
 0.43596026865695353 0.16706413521241617 0.4359602686570164 0.16706413521249 -0.13239223689780424 -0.6268124435530849 0.2604716995836719 0.2926841731286105
 0.43596026865700754 0.16706413521247845 0.4359602686570843 0.1670641352125461 0.2604716995836718 0.2926841731286103 -0.13239223689762714 -0.6268124435530059
149500000.0 -0.15174665250908267 -0.6178153155004739 0.2790798467641057 0.2845194674751045 0.43633340287237854 0.16664792401286802 0.4363334028724329 0.16664792401293058
 0.2790798467641056 0.2845194674751043 -0.15174665250886551 -0.6178153155003899 0.4363334028724415 0.16664792401294198 0.43633340287251 0.1666479240129981
 0.4363334028723783 0.166647924012868 0.43633340287244166 0.16664792401294193 -0.13417986401584375 -0.625789365911476 0.26151305827086085 0.29249351788609945
 0.43633340287243255 0.16664792401293044 0.43633340287250966 0.16664792401299808 0.2615130582708607 0.2924935178860993 -0.13417986401566614 -0.625789365911397
150000000.0 -0.15347416472146386 -0.6167501258797223 0.280067280869936 0.2842835073593712 0.4367034419256537 0.16623330926035973 0.43670344192570826 0.16623330926042207
 0.2800672808699359 0.2842835073593711 -0.1534741647212466 -0.6167501258796386 0.4367034419257169 0.16623330926043364 0.4367034419257855 0.1662333092604896
 0.43670344192565347 0.16623330926035976 0.4367034419257171 0.1662333092604337 -0.1359559469314355 -0.6247663897908519 0.26254906307990206 0.29229977127049384
 0.43670344192570787 0.16623330926042196 0.43670344192578536 0.16623330926048957 0.26254906307990195 0.2922997712704937 -0.1359559469312579 -0.6247663897907734
150500000.0 -0.1551901920920435 -0.6156855756101033 0.28104935597213304 0.28404500105693425 0.4370704180598447 0.16582028727676967 0.4370704180598995 0.16582028727683226
 0.28104935597213293 0.28404500105693403 -0.15519019209182605 -0.6156855756100198 0.4370704180599081 0.16582028727684345 0.43707041805997693 0.16582028727689951
 0.4370704180598445 0.1658202872767697 0.43707041805990826 0.16582028727684348 -0.13772057006631677 -0.6237435605140785 0.26357973394640055 0.29210298596090234
 0.43707041805989916 0.1658202872768319 0.4370704180599767 0.1658202872768994 0.26357973394640044 0.2921029859609021 -0.1377205700661388 -0.623743560514
151000000.0 -0.1568948224107666 -0.6146217053106877 0.28202609615398755 0.28380399674042406 0.4374343631282788 0.16540885428531807 0.43743436312833384 0.16540885428538038
 0.2820260961539874 0.28380399674042406 -0.156894822410549 -0.6146217053106042 0.4374343631283426 0.16540885428539198 0.4374343631284116 0.16540885428544785
 0.4374343631282787 0.16540885428531812 0.4374343631283426 0.1654088542853919 -0.1394738172641035 -0.6227209225336728 0.2646050910073186 0.29190321396340213
 0.43743436312833356 0.16540885428538035 0.43743436312841133 0.16540885428544777 0.26460509100731855 0.2919032139634021 -0.13947381726392552 -0.6227209225335945
151500000.0 -0.1585881428135678 -0.6135585547517575 0.28299752561406755 0.2835605419239037 0.43779530859963917 0.1649990064141143 0.4377953085996944 0.1649990064141767
 0.28299752561406744 0.28356054192390345 -0.15858814281334993 -0.6135585547516744 0.4377953085997032 0.164999006414188 0.4377953085997724 0.1649990064142438
 0.4377953085996388 0.16499900641411416 0.4377953085997032 0.1649990064141879 -0.14121577179175956 -0.6216985194457297 0.2656251545922534 0.29170050661786845
 0.437795308599694 0.16499900641417636 0.437795308599772 0.16499900641424375 0.2656251545922534 0.29170050661786834 -0.1412157717915812 -0.6216985194456516
152000000.0 -0.1602702397850459 -0.6124961628691961 0.28396366865883677 0.28331468347035094 0.4381532855629931 0.16459073969961086 0.43815328556304867 0.16459073969967322
 0.2839636686588367 0.2833146834703509 -0.16027023978482782 -0.6124961628691131 0.4381532855630574 0.16459073969968463 0.4381532855631268 0.1645907396997404
 0.438153285562993 0.16459073969961077 0.4381532855630576 0.16459073969968446 -0.14294651634113714 -0.6206763940036396 0.26663994521492246 0.29149491460478716
 0.4381532855630483 0.16459073969967297 0.43815328556312644 0.16459073969974022 0.2666399452149222 0.291494914604787 -0.14294651634095862 -0.6206763940035613
152500000.0 -0.16194119916120564 -0.6114345677786484 0.28492454969546693 0.2830664675990984 0.4385083247327577 0.16418405008996434 0.4385083247328135 0.16418405009002668
 0.2849245496954669 0.2830664675990982 -0.1619411991609873 -0.6114345677785659 0.4385083247328224 0.16418405009003786 0.43850832473289186 0.16418405009009363
 0.43850832473275747 0.16418405008996426 0.4385083247328224 0.16418405009003795 -0.144666133030599 -0.6196545881316039 0.26764948356485446 0.2912864879520466
 0.43850832473281315 0.1641840500900264 0.43850832473289164 0.16418405009009363 0.2676494835648544 0.2912864879520465 -0.14466613303042017 -0.6196545881315261
153000000.0 -0.16360110613226211 -0.6103738067894614 0.28588019322483976 0.28281593989322806 0.43886045645359917 0.16377893344830693 0.4388604564536552 0.16377893344836922
 0.2858801932248396 0.28281593989322795 -0.16360110613204362 -0.6103738067893788 0.43886045645366395 0.16377893344838063 0.43886045645373395 0.16377893344843622
 0.438860456453599 0.16377893344830702 0.4388604564536643 0.16377893344838065 -0.1463747034067092 -0.6186331429379506 0.26865379049928134 0.2910752760417103
 0.4388604564536549 0.1637789334483689 0.4388604564537335 0.16377893344843605 0.26865379049928106 0.29107527604171 -0.14637470340653047 -0.618633142937873
153500000.0 -0.16525004524550208 -0.6093139164183999 0.2868306238347353 0.282563145306921 0.4392097107052712 0.16337538555593062 0.4392097107053272 0.16337538555599276
 0.28683062383473534 0.282563145306921 -0.16525004524528342 -0.6093139164183177 0.4392097107053363 0.16337538555600425 0.4392097107054062 0.16337538555605977
 0.43920971070527104 0.16337538555593065 0.4392097107053364 0.16337538555600417 -0.14807230844599822 -0.61761209872825 0.26965288703522583 0.29086132761676403
 0.43920971070532694 0.16337538555599257 0.4392097107054057 0.16337538555605965 0.2696528870352257 0.29086132761676387 -0.14807230844581945 -0.6176120987281725
154000000.0 -0.1668881004082053 -0.6082549324031485 0.2877758661932027 0.28230812817276096 0.4395561171073888 0.1629734021153861 0.4395561171074449 0.16297340211544822
 0.2877758661932027 0.28230812817276096 -0.16688810040798635 -0.6082549324030665 0.4395561171074541 0.1629734021154596 0.4395561171075241 0.16297340211551514
 0.4395561171073887 0.1629734021153861 0.43955611710745435 0.16297340211545963 -0.14975902855679232 -0.616591495018235 0.2706467943417843 0.29064469078784017
 0.43955611710744485 0.16297340211544808 0.43955611710752385 0.162973402115515 0.27064679434178407 0.29064469078784 -0.14975902855661322 -0.6165914950181575
154500000.0 -0.1685153548906163 -0.6071968897155979 0.28871594504210757 0.2820509322089878 0.43989970492414193 0.1625729787534981 0.4398997049241983 0.16257297875356025
 0.28871594504210746 0.28205093220898775 -0.16851535489039743 -0.6071968897155159 0.43989970492420744 0.16257297875357163 0.4398997049242775 0.16257297875362703
 0.4398997049241416 0.162572978753498 0.4398997049242074 0.1625729787535714 -0.15143494358111015 -0.6155713705465309 0.27163553373259525 0.2904254130399135
 0.4398997049241981 0.1625729787535602 0.4398997049242773 0.16257297875362695 0.27163553373259525 0.2904254130399135 -0.15143494358093054 -0.6155713705464534
155000000.0 -0.1701318913289722 -0.6061398225749178 0.2896508851908547 0.2817916005267042 0.4402405030689459 0.16217411102430102 0.44024050306900253 0.16217411102436322
 0.2896508851908545 0.28179160052670404 -0.17013189132875303 -0.6061398225748362 0.44024050306901163 0.16217411102437454 0.44024050306908197 0.16217411102442983
 0.4402405030689455 0.16217411102430088 0.44024050306901163 0.16217411102437432 -0.1531001327966207 -0.6145517632871915 0.27261912665849714 0.2902035412389702
 0.44024050306900225 0.16217411102436302 0.44024050306908175 0.1621741110244298 0.272619126658497 0.2902035412389702 -0.15310013279644086 -0.6145517632871141
155500000.0 -0.1717377917285741 -0.6050837644604277 0.29058071151028164 0.28153017563703014 0.440578540109033 0.16177679441189405 0.44057854010908987 0.16177679441195603
 0.2905807115102816 0.28153017563703003 -0.1717377917283548 -0.6050837644603462 0.4405785401090991 0.16177679441196743 0.44057854010916964 0.1617767944120225
 0.4405785401090328 0.161776794411894 0.4405785401090993 0.16177679441196738 -0.15475467491866218 -0.6135327104620502 0.27359759470036393 0.2899791216386455
 0.4405785401090896 0.16177679441195578 0.4405785401091694 0.16177679441202253 0.27359759470036377 0.2899791216386453 -0.15475467491848274 -0.6135327104619732
156000000.0 -0.17333313746690923 -0.6040287481242549 0.2915054489267175 0.28126669945820754 0.4409138442699825 0.16138102433321988 0.4409138442700396 0.16138102433328186
 0.29150544892671737 0.2812666994582074 -0.17333313746668969 -0.6040287481241736 0.4409138442700489 0.1613810243332932 0.44091384427011954 0.1613810243333484
 0.4409138442699822 0.1613810243332198 0.4409138442700489 0.16138102433329307 -0.15639864810231902 -0.612514248552885 0.27457095956212124 0.2897521998868303
 0.44091384427003927 0.1613810243332817 0.4409138442701193 0.16138102433334828 0.27457095956212113 0.2897521998868302 -0.15639864810213913 -0.6125142485528082
156500000.0 -0.1749180092968155 -0.6029748056037975 0.2924251224162057 0.28100121332265215 0.4412464434401911 0.16098679614076972 0.4412464434402485 0.16098679614083183
 0.29242512241620566 0.28100121332265204 -0.1749180092965957 -0.6029748056037165 0.44124644344025776 0.16098679614084294 0.44124644344032876 0.1609867961408982
 0.4412464434401909 0.1609867961407698 0.4412464434402579 0.16098679614084305 -0.1580321299445513 -0.6114964133133991 0.2755392430639355 0.28952282103224675
 0.44124644344024827 0.16098679614083167 0.4412464434403285 0.16098679614089817 0.27553924306393535 0.2895228210322465 -0.158032129944371 -0.6114964133133225
157000000.0 -0.17649248734968687 -0.6019219682339839 0.29333975699888654 0.28073375798395306 0.44157636517528615 0.16059410512521366 0.44157636517534365 0.1605941051252756
 0.2933397569988865 0.280733757983953 -0.176492487349467 -0.6019219682339031 0.44157636517535315 0.1605941051252869 0.4415763651754242 0.16059410512534197
 0.4415763651752859 0.16059410512521358 0.4415763651753532 0.16059410512528685 -0.15965519748638038 -0.6104792397810243 0.27650246713557397 0.28929102953098623
 0.4415763651753435 0.1605941051252755 0.441576365175424 0.160594105125342 0.2765024671355739 0.2892910295309863 -0.1596551974861998 -0.6104792397809478
157500000.0 -0.17805665113872046 -0.6008702666593381 0.2942493777335347 0.28046437362381726 0.4419036367024787 0.16020294651795947 0.44190363670253646 0.16020294651802144
 0.29424937773353455 0.2804643736238172 -0.17805665113850058 -0.6008702666592574 0.4419036367025456 0.16020294651803263 0.4419036367026169 0.16020294651808775
 0.44190363670247845 0.16020294651795944 0.44190363670254573 0.16020294651803255 -0.16126792721512448 -0.6094627622885437 0.2774606538099326 0.2890568692530156
 0.4419036367025362 0.16020294651802125 0.4419036367026167 0.1602029465180876 0.2774606538099325 0.28905686925301555 -0.16126792721494385 -0.6094627622884674
158000000.0 -0.17961057956219897 -0.5998197308458509 0.29515400971225025 0.2801930998589621 0.4422282849248598 0.15981331549364464 0.4422282849249179 0.15981331549370653
 0.29515400971225014 0.2801930998589619 -0.1796105795619789 -0.5998197308457707 0.4422282849249271 0.15981331549371766 0.4422282849249987 0.15981331549377253
 0.4422282849248596 0.15981331549364464 0.44222828492492733 0.15981331549371763 -0.16287039506668122 -0.6084470144755408 0.27841382521672653 0.2888203834886448
 0.4422282849249176 0.1598133154937063 0.4422282849249983 0.15981331549377262 0.27841382521672636 0.28882038348864464 -0.16287039506650058 -0.6084470144754647
158500000.0 -0.18115435090680965 -0.5987703900926616 0.29605367805529814 0.2799199757479498 0.44255033642564107 0.15942520717255726 0.4425503364256992 0.15942520717261918
 0.29605367805529803 0.2799199757479497 -0.18115435090658932 -0.5987703900925814 0.4425503364257086 0.15942520717263023 0.44255033642578023 0.1594252071726852
 0.4425503364256408 0.15942520717255726 0.4425503364257086 0.1594252071726302 -0.1644626764278598 -0.6074320292996754 0.27936200357634217 0.28858161495495627
 0.44255033642569896 0.15942520717261907 0.44255033642577996 0.15942520717268513 0.27936200357634206 0.28858161495495616 -0.1644626764276788 -0.6074320292995994
159000000.0 -0.1826880428509955 -0.5977222730435519 0.2969484079060937 0.27964503979796856 0.44286981747233606 0.15903861662299373 0.4428698174723945 0.15903861662305557
 0.2969484079060935 0.2796450397979684 -0.1826880428507754 -0.5977222730434718 0.4428698174724037 0.15903861662306676 0.44286981747247545 0.15903861662312163
 0.44286981747233584 0.1590386166229937 0.4428698174724039 0.15903861662306665 -0.16604484613875345 -0.606417839047788 0.2803052111938455 0.2883406058021975
 0.4428698174723942 0.15903861662305543 0.44286981747247534 0.15903861662312155 0.2803052111938454 0.28834060580219745 -0.1660448461385723 -0.6064178390477121
159500000.0 -0.18421173246833872 -0.5966754076982528 0.29783822442633057 0.2793683299715567 0.44318675402088875 0.1586535388635512 0.4431867540209474 0.15865353886361291
 0.2978382244263305 0.27936832997155675 -0.1842117324681182 -0.5966754076981727 0.4431867540209568 0.15865353886362424 0.44318675402102875 0.15865353886367903
 0.44318675402088864 0.15865353886355124 0.443186754020957 0.15865353886362407 -0.16761697849515914 -0.6054044753468364 0.28124347045314496 0.28809739762013326
 0.4431867540209472 0.15865353886361283 0.4431867540210286 0.15865353886367878 0.28124347045314485 0.28809739762013314 -0.167616978494978 -0.6054044753467608
160000000.0 -0.18572549623097181 -0.5956298214235746 0.2987231527912488 0.27908988369326965 0.4435011717197461 0.15826996886535666 0.44350117171980485 0.15826996886541841
 0.2987231527912486 0.2790898836932696 -0.18572549623075119 -0.5956298214234947 0.44350117171981435 0.15826996886542957 0.4435011717198864 0.15826996886548425
 0.4435011717197458 0.1582699688653567 0.44350117171981446 0.15826996886542952 -0.16917914725103356 -0.6043919691746672 0.28217680381130417 0.28785203144435534
 0.44350117171980463 0.1582699688654183 0.44350117171988623 0.1582699688654842 0.282176803811304 0.28785203144435517 -0.16917914725085198 -0.6043919691745917
160500000.0 -0.18722941001301824 -0.5945855409643523 0.2996032181850369 0.2788097378562897 0.44381309591387513 0.15788790155423643 0.4438130959139339 0.15788790155429808
 0.2996032181850368 0.2788097378562897 -0.18722941001279741 -0.5945855409642727 0.44381309591394347 0.1578879015543093 0.44381309591401563 0.1578879015543639
 0.4438130959138748 0.15788790155423643 0.4438130959139436 0.15788790155430918 -0.17073142562099017 -0.6033803508706228 0.2831052337930025 0.2876045477625532
 0.4438130959139337 0.15788790155429802 0.44381309591401535 0.15788790155436383 0.2831052337930024 0.287604547762553 -0.1707314256208086 -0.6033803508705474
161000000.0 -0.18872354909405703 -0.5935425924542177 0.3004784457963705 0.27852792882897953 0.44412255164872727 0.1575073318128251 0.4441225516487865 0.15750733181288684
 0.3004784457963704 0.27852792882897937 -0.18872354909383582 -0.5935425924541383 0.4441225516487961 0.15750733181289792 0.44412255164886855 0.1575073318129524
 0.44412255164872705 0.15750733181282497 0.44412255164879616 0.15750733181289786 -0.17227388628283333 -0.6023696501459861 0.28402878298514045 0.28735498652074076
 0.44412255164878617 0.1575073318128866 0.4441225516488682 0.15750733181295248 0.28402878298514034 0.28735498652074065 -0.1722738862826514 -0.6023696501459107
161500000.0 -0.19020798816261067 -0.5925010014261954 0.30134886081407714 0.27824449246137545 0.44442956367415054 0.15712825448261736 0.4444295636742099 0.15712825448267892
 0.30134886081407714 0.27824449246137534 -0.19020798816238954 -0.5925010014261164 0.4444295636742197 0.1571282544826899 0.44442956367429204 0.1571282544827445
 0.4444295636741503 0.15712825448261727 0.4444295636742195 0.15712825448269 -0.17380660138012505 -0.6013598960942681 0.2849474740315851 0.2871033871294409
 0.44442956367420966 0.15712825448267878 0.44442956367429187 0.15712825448274442 0.2849474740315851 0.2871033871294408 -0.173806601379943 -0.601359896094193
162000000.0 -0.19168280131965865 -0.5914607928231307 0.30221448842293247 0.27795946409162414 0.44473415644824665 0.15675066436596147 0.4447341564483062 0.15675066436602297
 0.30221448842293225 0.277959464091624 -0.1916828013194372 -0.5914607928230519 0.44473415644831593 0.15675066436603416 0.44473415644838865 0.15675066436608845
 0.4447341564482463 0.15675066436596147 0.4447341564483161 0.15675066436603408 -0.17532964252478814 -0.600351117201338 0.2858613296280557 0.28684978846982445
 0.44473415644830583 0.15675066436602278 0.4447341564483883 0.15675066436608842 0.28586132962805555 0.2868497884698243 -0.17532964252460617 -0.6003511172012632
162500000.0 -0.19314806208216595 -0.5904219910079441 0.3030753537995758 0.2776728785523605 0.44503635414117826 0.15637455622800103 0.445036354141238 0.15637455622806248
 0.30307535379957573 0.27767287855236034 -0.19314806208194413 -0.5904219910078655 0.4450363541412478 0.15637455622807367 0.4450363541413208 0.1563745562281279
 0.44503635414117804 0.15637455622800092 0.4450363541412479 0.15637455622807364 -0.1768430807997387 -0.5993433413553977 0.2867703725171424 0.2865942288998069
 0.44503635414123777 0.1563745562280623 0.44503635414132053 0.15637455622812796 0.28677037251714227 0.28659422889980685 -0.17684308079955646 -0.599343341355323
163000000.0 -0.19460384338663528 -0.5893846197737246 0.30393148210855225 0.2773847701770258 0.44533618063892455 0.1559999247985595 0.4453361806389845 0.15599992479862093
 0.3039314821085522 0.27738477017702573 -0.19460384338641362 -0.589384619773646 0.44533618063899433 0.1559999247986321 0.44533618063906744 0.1559999247986863
 0.44533618063892444 0.15599992479855967 0.44533618063899444 0.1559999247986321 -0.17834698676154942 -0.598336595856804 0.28767462548346 0.2863367462600983
 0.44533618063898434 0.15599992479862085 0.4453361806390671 0.15599992479868632 0.28767462548345984 0.28633674626009814 -0.17834698676136707 -0.5983365958567295
163500000.0 -0.19605021759267482 -0.588348702353655 0.3047828984984692 0.2770951728061276 0.44563365954698575 0.155626764773975 0.445633659547046 0.15562676477403625
 0.3047828984984692 0.2770951728061275 -0.19605021759245317 -0.5883487023535767 0.4456336595470555 0.15562676477404727 0.44563365954712886 0.15562676477410148
 0.4456336595469856 0.1556267647739749 0.44563365954705564 0.15562676477404724 -0.17984143044314121 -0.5973309074277419 0.288574111348929 0.2860773778802073
 0.4456336595470457 0.15562676477403614 0.4456336595471285 0.15562676477410134 0.28857411134892885 0.28607737788020715 -0.17984143044295867 -0.5973309074276675
164000000.0 -0.1974872564865812 -0.58731426143078 0.3056296280982713 0.2768041197934402 0.4459288141940374 0.15525507081888215 0.44592881419409797 0.15525507081894346
 0.3056296280982712 0.2768041197934401 -0.19748725648635926 -0.5873142614307019 0.4459288141941077 0.15525507081895448 0.44592881419418107 0.1552550708190086
 0.44592881419403735 0.15525507081888218 0.44592881419410785 0.15525507081895448 -0.18132648135650142 -0.5963263022217475 0.2894688529681855 0.28581616058440074
 0.44592881419409763 0.15525507081894324 0.4459288141941808 0.1552550708190085 0.28946885296818525 0.2858161605844005 -0.18132648135631893 -0.5963263022216733
164500000.0 -0.1989150312849366 -0.5862813191476121 0.3064716960136273 0.27651164401214545 0.44622166763553706 0.15488483756794633 0.4462216676355975 0.15488483756800767
 0.30647169601362734 0.27651164401214545 -0.1989150312847143 -0.5862813191475339 0.44622166763560744 0.15488483756801869 0.44622166763568083 0.15488483756807278
 0.4462216676355369 0.15488483756794647 0.4462216676356074 0.15488483756801866 -0.1828022084954294 -0.5953228058330867 0.29035887322411363 0.2855531306976132
 0.4462216676355974 0.1548848375680076 0.44622166763568055 0.15488483756807286 0.29035887322411363 0.2855531306976132 -0.18280220849524645 -0.5953228058330124
165000000.0 -0.20033361263822128 -0.5852498971155835 0.30730912732342797 0.2762177778609151 0.44651224265727874 0.15451605962754839 0.44651224265733946 0.1545160596276097
 0.30730912732342786 0.276217777860915 -0.20033361263799904 -0.5852498971155058 0.44651224265734935 0.1545160596276206 0.446512242657423 0.15451605962767467
 0.44651224265727846 0.1545160596275484 0.4465122426573494 0.1545160596276207 -0.18426868033830102 -0.5943204433059885 0.29124419502350124 0.28528832405131327
 0.44651224265733924 0.15451605962760956 0.4465122426574228 0.1545160596276747 0.29124419502350113 0.28528832405131316 -0.18426868033811783 -0.5943204433059146
165500000.0 -0.20174307063443517 -0.5842200164243434 0.30814194707639225 0.2759225532699315 0.44680056177890337 0.15414873157742104 0.4468005617789643 0.15414873157748243
 0.3081419470763922 0.27592255326993137 -0.20174307063421287 -0.5842200164242657 0.44680056177897415 0.1541487315774934 0.446800561779048 0.15414873157754735
 0.44680056177890304 0.15414873157742104 0.4468005617789742 0.15414873157749334 -0.18572596485086174 -0.5933192391437374 0.29212484129281235 0.2850217759893183
 0.4468005617789641 0.15414873157748227 0.44680056177904776 0.15414873157754722 0.29212484129281235 0.2850217759893182 -0.18572596485067835 -0.5933192391436635
166000000.0 -0.20314347480273073 -0.5831916976509043 0.3089701802877783 0.2756260017068514 0.44708664725735764 0.15378284797224243 0.44708664725741887 0.15378284797230352
 0.3089701802877782 0.27562600170685136 -0.2031434748025082 -0.5831916976508267 0.44708664725742886 0.15378284797231456 0.4470866472575028 0.15378284797236833
 0.44708664725735753 0.15378284797224248 0.4470866472574289 0.15378284797231462 -0.1871741294890364 -0.5923192173176238 0.2930008349740778 0.2847535213735643
 0.4470866472574186 0.15378284797230332 0.4470866472575026 0.15378284797236824 0.29300083497407764 0.2847535213735641 -0.18717412948885329 -0.5923192173175503
166500000.0 -0.2045348941170544 -0.5821649608686369 0.3097938519361977 0.27532815418270856 0.4473705210903097 0.15341840334318116 0.447370521090371 0.15341840334324225
 0.3097938519361977 0.2753281541827085 -0.20453489411683168 -0.5821649608685595 0.447370521090381 0.15341840334325332 0.4473705210904551 0.1534184033433071
 0.44737052109030945 0.15341840334318116 0.44737052109038106 0.15341840334325327 -0.18861324120176143 -0.5913204012757604 0.29387219902089845 0.284483594589825
 0.44737052109037084 0.15341840334324214 0.44737052109045483 0.1534184033433071 0.2938721990208983 0.28448359458982486 -0.18861324120157788 -0.5913204012756867
167000000.0 -0.2059173969997969 -0.5811398256561225 0.3106129869605307 0.2750290412577563 0.44765220501951425 0.15305539219940112 0.44765220501957576 0.15305539219946207
 0.31061298696053063 0.27502904125775623 -0.20591739699957384 -0.5811398256560452 0.44765220501958575 0.1530553921994732 0.4476522050196601 0.15305539219952685
 0.4476522050195142 0.15305539219940117 0.44765220501958597 0.1530553921994732 -0.19004336643383224 -0.5903228139517568 0.29473895639455994 0.28421202955338376
 0.4476522050195754 0.15305539219946182 0.4476522050196598 0.15305539219952666 0.29473895639455966 0.2842120295533835 -0.1900433664336489 -0.5903228139516836
167500000.0 -0.20729105132544876 -0.5801163111058555 0.311427610256939 0.27472869304725234 0.44793172053413594 0.152693809029521 0.44793172053419755 0.15269380902958196
 0.31142761025693894 0.27472869304725217 -0.2072910513252256 -0.5801163111057788 0.4479317205342078 0.15269380902959293 0.4479317205342821 0.15269380902964647
 0.4479317205341357 0.15269380902952095 0.4479317205342079 0.15269380902959293 -0.1914645711287727 -0.5893264777732666 0.2956011300602565 0.28393885971465604
 0.4479317205341973 0.15269380902958168 0.44793172053428193 0.15269380902964644 0.29560113006025623 0.2839388597146559 -0.19146457112858906 -0.5893264777731935
168000000.0 -0.20865592442426278 -0.579094435832809 0.312237746675975 0.2744271392271817 0.4482090888740246 0.15233364830303384 0.4482090888740865 0.15233364830309484
 0.3122377466759749 0.2744271392271815 -0.20865592442403963 -0.5790944358327325 0.44820908887409655 0.15233364830310558 0.44820908887417116 0.15233364830315915
 0.4482090888740245 0.15233364830303375 0.4482090888740968 0.15233364830310558 -0.19287692073171522 -0.5883314146703968 0.29645874298342106 0.2836641180647623
 0.4482090888740863 0.15233364830309468 0.44820908887417094 0.15233364830315924 0.2964587429834209 0.2836641180647622 -0.19287692073153112 -0.5883314146703236
168500000.0 -0.21001208308591798 -0.5780742179828542 0.3130434210197843 0.27412440903992347 0.4484843310329477 0.1519749044716865 0.44848433103300966 0.15197490447174733
 0.3130434210197841 0.2741244090399234 -0.2100120830856948 -0.5780742179827776 0.44848433103301977 0.1519749044717584 0.44848433103309443 0.15197490447181178
 0.4484843310329473 0.15197490447168652 0.44848433103301966 0.15197490447175832 -0.1942804801922996 -0.5873376460839903 0.2973118181261592 0.28338783714105265
 0.44848433103300933 0.1519749044717472 0.44848433103309415 0.15197490447181167 0.297311818126159 0.28338783714105253 -0.19428048019211555 -0.5873376460839175
169000000.0 -0.21135959356319198 -0.5770556752410473 0.3138446580393994 0.27382053129985495 0.44875746776177666 0.15161757197081843 0.44875746776183884 0.15161757197087924
 0.3138446580393993 0.2738205312998548 -0.21135959356296843 -0.5770556752409709 0.44875746776184905 0.1516175719708901 0.44875746776192393 0.15161757197094347
 0.44875746776177644 0.15161757197081832 0.4487574677618492 0.15161757197089007 -0.1956753139675841 -0.5863451929737795 0.298160378443785 0.2831100490325799
 0.4487574677618386 0.15161757197087913 0.44875746776192366 0.15161757197094347 0.29816037844378485 0.28311004903257986 -0.19567531396739982 -0.5863451929737066
169500000.0 -0.21269852157562913 -0.576038824839778 0.3146414824321238 0.2735155343988987 0.4490285195716327 0.1512616452206628 0.4490285195716952 0.15126164522072358
 0.31464148243212375 0.2735155343988986 -0.2126985215754054 -0.5760388248397017 0.44902851957170536 0.15126164522073454 0.4490285195717803 0.15126164522078783
 0.44902851957163253 0.15126164522066274 0.44902851957170536 0.15126164522073446 -0.19706148602496845 -0.5853540758264119 0.2990044468814564 0.2828307853855255
 0.44902851957169493 0.1512616452207234 0.4490285195717801 0.15126164522078778 0.29900444688145633 0.28283078538552536 -0.19706148602478388 -0.5853540758263391
170000000.0 -0.2140289323132151 -0.5750236835667831 0.31543391883900135 0.27320944631201 0.44929750673698676 0.15090711862761078 0.44929750673704943 0.15090711862767148
 0.3154339188390011 0.27320944631200994 -0.21402893231299144 -0.5750236835667069 0.44929750673705965 0.15090711862768247 0.44929750673713476 0.1509071186277357
 0.44929750673698665 0.1509071186276108 0.4492975067370597 0.15090711862768239 -0.198439059845129 -0.5843643146633531 0.29984404637090856 0.28255007740857313
 0.4492975067370491 0.1509071186276713 0.4492975067371345 0.15090711862773556 0.2998440463709084 0.282550077408573 -0.19843905984494456 -0.5843643146632806
170500000.0 -0.2153508904400495 -0.5740102677730318 0.3162219918423714 0.2729022946026057 0.4495644492987186 0.15055398658543823 0.4495644492987815 0.15055398658549898
 0.3162219918423714 0.2729022946026057 -0.21535089043982542 -0.5740102677729557 0.44956444929879164 0.1505539865855099 0.4495644492988671 0.15055398658556315
 0.44956444929871847 0.15055398658543837 0.44956444929879164 0.1505539865855099 -0.199808098424965 -0.583375929048667 0.3006791998272804 0.28226795587823406
 0.44956444929878114 0.15055398658549882 0.44956444929886663 0.15055398658556304 0.30067919982728014 0.2822679558782339 -0.19980809842478023 -0.5833759290485946
171000000.0 -0.2166644600980169 -0.572998593380478 0.3170057259635078 0.2725941064279341 0.449829367067134 0.15020224347649822 0.4498293670671968 0.1502022434765588
 0.3170057259635078 0.2725941064279339 -0.21666446009779305 -0.5729985933804024 0.4498293670672073 0.1502022434765696 0.4498293670672826 0.1502022434766227
 0.4498293670671338 0.15020224347649805 0.44982936706720733 0.15020224347656957 -0.20116866428055197 -0.5823889380966726 0.3015099301460363 0.2819844511441214
 0.4498293670671966 0.15020224347655864 0.44982936706728227 0.15020224347662267 0.3015099301460361 0.2819844511441214 -0.201168664280367 -0.5823889380966003
171500000.0 -0.2179697049104589 -0.5719886758896875 0.31778514566033755 0.2722849085443871 0.4500922796249401 0.14985188367287738 0.4500922796250033 0.14985188367293795
 0.31778514566033744 0.2722849085443869 -0.217969704910235 -0.571988675889612 0.45009227962501336 0.14985188367294866 0.4500922796250891 0.14985188367300173
 0.45009227962493986 0.14985188367287725 0.45009227962501364 0.1498518836729486 -0.2025208194501057 -0.5814033604794836 0.3023362601999775 0.28169959313417586
 0.450092279625003 0.14985188367293775 0.45009227962508885 0.1498518836730016 0.30233626019997734 0.2816995931341757 -0.2025208194499207 -0.5814033604794115
172000000.0 -0.21926668798584165 -0.5709805303873376 0.3185602753252382 0.2719747273127533 0.4503532063301808 0.14950290153752044 0.45035320633024417 0.1495029015375809
 0.31856027532523806 0.2719747273127532 -0.21926668798561744 -0.5709805303872624 0.4503532063302545 0.14950290153759174 0.4503532063303303 0.14950290153764473
 0.45035320633018056 0.14950290153752033 0.45035320633025455 0.14950290153759171 -0.20386462549695286 -0.5804192144344307 0.3031582128363427 0.2814134113598393
 0.4503532063302439 0.14950290153758078 0.45035320633033005 0.14950290153764473 0.30315821283634253 0.28141341135983916 -0.20386462549676754 -0.5804192144343587
172500000.0 -0.22055547192141933 -0.5699741715535953 0.3193311392829135 0.27166358870341367 0.45061216631913165 0.14915529142532 0.4506121663191952 0.14915529142538045
 0.31933113928291346 0.2716635887034135 -0.22055547192119476 -0.5699741715535203 0.45061216631920553 0.14915529142539125 0.4506121663192814 0.14915529142544418
 0.4506121663191315 0.14915529142531994 0.4506121663192057 0.14915529142539127 -0.20520014351250765 -0.5794365177713677 0.3039758108739954 0.28112593492117893
 0.45061216631919493 0.14915529142538028 0.45061216631928114 0.14915529142544415 0.30397581087399517 0.2811259349211788 -0.20520014351232238 -0.579436517771296
173000000.0 -0.22183611880689658 -0.568969613669372 0.32009776178834404 0.27135151830148 0.4508691785091547 0.1488090476841761 0.4508691785092186 0.14880904768423664
 0.32009776178834404 0.2713515183014799 -0.22183611880667195 -0.5689696136692972 0.45086917850922886 0.1488090476842473 0.450869178509305 0.1488090476843002
 0.45086917850915464 0.1488090476841762 0.45086917850922903 0.1488090476842474 -0.2065274341192549 -0.5784552878798623 0.3047890771006958 0.28083719251196343
 0.4508691785092183 0.14880904768423645 0.45086917850930464 0.14880904768430017 0.3047890771006956 0.28083719251196326 -0.20652743411906946 -0.5784552878797908
173500000.0 -0.22310869022808358 -0.5679668706234592 0.32086016702480974 0.27103854131187494 0.45112426160151525 0.14846416465602313 0.4511242616015791 0.14846416465608342
 0.32086016702480963 0.2710385413118748 -0.22310869022785867 -0.5679668706233844 0.45112426160158964 0.14846416465609427 0.4511242616016658 0.148464164656147
 0.45112426160151503 0.14846416465602327 0.45112426160158964 0.14846416465609438 -0.20784655747373687 -0.5774755417362765 0.3055980342704564 0.2805472124246856
 0.45112426160157876 0.14846416465608342 0.45112426160166547 0.1484641646561471 0.3055980342704563 0.28054721242468555 -0.20784655747355124 -0.5774755417362052
174000000.0 -0.2243732472705454 -0.566965955919546 0.32161837910198543 0.27072468256435606 0.4513774340841583 0.1481206366778273 0.4513774340842224 0.14812063667788766
 0.3216183791019853 0.2707246825643559 -0.2243732472703207 -0.5669659559194715 0.4513774340842328 0.14812063667789835 0.4513774340843091 0.14812063667795095
 0.45137743408415815 0.14812063667782724 0.4513774340842329 0.14812063667789824 -0.20915757326954543 -0.5764972959107354 0.30640270510097845 0.2802560225555382
 0.4513774340842221 0.14812063667788755 0.45137743408430886 0.148120636677951 0.30640270510097833 0.2802560225555381 -0.2091575732693597 -0.5764972959106639
174500000.0 -0.22562985052324724 -0.5659668826831226 0.3223724220541052 0.27040996651848137 0.45162871423444884 0.14777845808255366 0.45162871423451323 0.14777845808261397
 0.3223724220541052 0.2704099665184814 -0.22562985052302212 -0.565966882683048 0.4516287142345236 0.14777845808262474 0.45162871423460016 0.14777845808267745
 0.45162871423444867 0.1477784580825537 0.45162871423452366 0.14777845808262471 -0.21046054074031478 -0.5755205665739855 0.30720311227116615 0.2799636504093376
 0.4516287142345129 0.14777845808261375 0.4516287142345998 0.14777845808267726 0.3072031122711659 0.2799636504093374 -0.21046054074012882 -0.5755205665739145
175000000.0 -0.2268785600821885 -0.5649696636682656 0.32312231983819606 0.2700944172685218 0.451878120121874 0.14743762320010606 0.45187812012193845 0.1474376232001662
 0.32312231983819595 0.27009441726852174 -0.22687856008196342 -0.5649696636681911 0.45187812012194906 0.14743762320017703 0.45187812012202555 0.14743762320022957
 0.45187812012187384 0.14743762320010606 0.45187812012194906 0.14743762320017703 -0.21175551866272008 -0.5745453695041499 0.3079992784187207 0.27967012310439915
 0.45187812012193823 0.14743762320016607 0.4518781201220253 0.14743762320022955 0.30799927841872066 0.27967012310439904 -0.21175551866253398 -0.574545369504079
175500000.0 -0.2281194355540345 -0.5639743112643151 0.3238680963323757 0.2697780585483128 0.452125669610707 0.14709812635823624 0.45212566961077155 0.1470981263582963
 0.3238680963323756 0.26977805854831277 -0.22811943555380915 -0.5639743112642409 0.4521256696107822 0.1470981263583072 0.45212566961085887 0.1470981263583596
 0.4521256696107067 0.14709812635823616 0.45212566961078215 0.14709812635830713 -0.2130425653594738 -0.5735717200933714 0.3087912261378081 0.27937546737736213
 0.4521256696107711 0.14709812635829614 0.4521256696108584 0.1470981263583596 0.30879122613780785 0.2793754673773621 -0.21304256535928784 -0.5735717200933006
176000000.0 -0.2293525360597344 -0.5629808375024387 0.32460977533421725 0.2694609137360545 0.452371380362636 0.14675996188342844 0.45237138036270086 0.14675996188348847
 0.324609775334217 0.26946091373605435 -0.22935253605950925 -0.5629808375023646 0.4523713803627113 0.14675996188349927 0.4523713803627882 0.14675996188355162
 0.45237138036263574 0.14675996188342844 0.4523713803627115 0.14675996188349924 -0.21432173870232546 -0.572599633354357 0.30957897797680123 0.279079709587966
 0.45237138036270047 0.14675996188348833 0.45237138036278796 0.14675996188355162 0.30957897797680095 0.2790797095879659 -0.214321738702139 -0.5725996333542863
176500000.0 -0.23057792023813456 -0.5619892540620879 0.3253473805591756 0.269143005859053 0.45261526983935657 0.14642312410175454 0.4526152698394216 0.1464231241018146
 0.32534738055917556 0.269143005859053 -0.23057792023790893 -0.5619892540620139 0.4526152698394322 0.1464231241018254 0.45261526983950906 0.14642312410187772
 0.4526152698393564 0.14642312410175456 0.4526152698394322 0.14642312410182523 -0.2155930961150602 -0.5716291239268166 0.3103625564360944 0.27878287572377475
 0.4526152698394213 0.1464231241018145 0.45261526983950884 0.14642312410187763 0.31036255643609445 0.27878287572377464 -0.2155930961148737 -0.5716291239267459
177000000.0 -0.23179564624957796 -0.5609995722773464 0.3260809356390761 0.2688243575984099 0.452857355305128 0.1460876073397064 0.4528573553051931 0.14608760733976647
 0.32608093563907586 0.26882435759840967 -0.2317956462493525 -0.5609995722772728 0.4528573553052036 0.14608760733977713 0.45285735530528076 0.14608760733982928
 0.4528573553051277 0.14608760733970652 0.45285735530520377 0.14608760733977713 -0.2168566945764974 -0.5706602060837999 0.31114198396598847 0.2784849914048565
 0.4528573553051927 0.14608760733976625 0.45285735530528065 0.1460876073398293 0.31114198396598824 0.27848499140485633 -0.21685669457631088 -0.5706602060837295
177500000.0 -0.2330057717794984 -0.5600118031431741 0.32681046412066184 0.2685049912936532 0.45309765382929507 0.14575340592499966 0.4530976538293605 0.14575340592505956
 0.3268104641206618 0.2685049912936531 -0.23300577177927276 -0.5600118031431007 0.453097653829371 0.14575340592507013 0.4530976538294484 0.14575340592512234
 0.4530976538292949 0.14575340592499972 0.453097653829371 0.14575340592507022 -0.2181125906234872 -0.5696928937379374 0.3119172829646436 0.27818608188840965
 0.4530976538293601 0.14575340592505928 0.4530976538294479 0.14575340592512218 0.3119172829646434 0.2781860818884093 -0.21811259062330055 -0.5696928937378674
178000000.0 -0.23420835404199936 -0.5590259573215471 0.3275359894642017 0.2681849289473179 0.4533361822887755 0.14542051418735494 0.45333618228884087 0.14542051418741478
 0.3275359894642016 0.2681849289473177 -0.23420835404177376 -0.5590259573214739 0.45333618228885153 0.1454205141874253 0.45333618228892886 0.14542051418747734
 0.4533361822887753 0.14542051418735494 0.45333618228885164 0.14542051418742533 -0.21936084035390552 -0.5687272004475784 0.312688475776101 0.27788617207334226
 0.45333618228884054 0.14542051418741464 0.4533361822889287 0.14542051418747742 0.3126884757761008 0.2778861720733422 -0.21936084035371872 -0.5687272004475082
178500000.0 -0.23540344978342403 -0.5580420451474948 0.32825753504215266 0.2678641922294689 0.45357295737051206 0.14508892645925406 0.4535729573705776 0.14508892645931393
 0.32825753504215266 0.2678641922294689 -0.23540344978319802 -0.5580420451474216 0.4535729573705884 0.14508892645932459 0.45357295737066583 0.1450889264593767
 0.45357295737051195 0.14508892645925406 0.4535729573705884 0.14508892645932447 -0.22060149942964696 -0.5677631394228358 0.31345558468836876 0.27758528650480296
 0.45357295737057735 0.14508892645931387 0.4535729573706656 0.14508892645937663 0.3134555846883686 0.27758528650480296 -0.22060149942945984 -0.5677631394227657
179000000.0 -0.23659111528591303 -0.5570600766350376 0.3289751241378795 0.2675428024821736 0.4538079955738929 0.14475863707667438 0.45380799557395873 0.1447586370767341
 0.3289751241378793 0.2675428024821735 -0.23659111528568705 -0.5570600766349646 0.4538079955739695 0.14475863707674477 0.453807995574047 0.14475863707679676
 0.45380799557389256 0.14475863707667427 0.4538079955739695 0.1447586370767447 -0.22183462307961346 -0.5668007235315335 0.31421863193157284 0.27728344937866245
 0.4538079955739584 0.14475863707673395 0.4538079955740469 0.14475863707679665 0.31421863193157273 0.27728344937866234 -0.2218346230794263 -0.5668007235314636
179500000.0 -0.23777140637095004 -0.5560800614830262 0.3296887799444275 0.26722078072391825 0.4540413132131371 0.14442964037979716 0.454041313213203 0.14442964037985692
 0.3296887799444275 0.26722078072391814 -0.2377714063707239 -0.5560800614829534 0.45404131321321384 0.14442964037986744 0.45404131321329166 0.1444296403799194
 0.45404131321313695 0.14442964037979725 0.45404131321321395 0.14442964037986747 -0.2230602661026996 -0.565839965305062 0.31497763967617015 0.27698068454594715
 0.4540413132132029 0.1444296403798567 0.4540413132132915 0.14442964037991937 0.31497763967617004 0.27698068454594704 -0.22306026610251237 -0.5658399653049924
180000000.0 -0.23894437840289368 -0.5551020090808813 0.3303985255633488 0.26689814765397435 0.45427292641964834 0.1441019307136978 0.45427292641971445 0.1441019307137575
 0.3303985255633487 0.26689814765397424 -0.2389443784026676 -0.5551020090808086 0.45427292641972516 0.144101930713768 0.45427292641980305 0.14410193071381988
 0.45427292641964795 0.14410193071369773 0.4542729264197251 0.14410193071376795 -0.22427848287077445 -0.5648808769441396 0.3157326300312224 0.27667701551722557
 0.4542729264197139 0.14410193071375724 0.4542729264198027 0.14410193071381977 0.31573263003122226 0.2766770155172254 -0.22427848287058708 -0.5648808769440699
180500000.0 -0.2401100862924988 -0.5541259285142411 0.3311043840035793 0.26657492365671037 0.4545028511443353 0.14377550242901052 0.4545028511444016 0.14377550242906995
 0.3311043840035792 0.26657492365671037 -0.24011008629227235 -0.5541259285141685 0.4545028511444125 0.1437755024290807 0.4545028511444904 0.14377550242913242
 0.45450285114433525 0.14377550242901063 0.4545028511444127 0.1437755024290808 -0.22548932733165722 -0.5639234703244824 0.31648362504273087 0.2763724654669451
 0.4545028511444014 0.14377550242906997 0.4545028511444902 0.14377550242913234 0.31648362504273064 0.27637246546694494 -0.22548932733147 -0.5639234703244131
181000000.0 -0.24126858450041921 -0.5531518285705109 0.3318063781803649 0.26625112880585305 0.45473110315990256 0.14345034988257518 0.4547311031599689 0.1434503498826347
 0.33180637818036485 0.26625112880585294 -0.24126858450019276 -0.5531518285704387 0.45473110315997994 0.14345034988264527 0.45473110316005794 0.1434503498826968
 0.4547311031599023 0.14345034988257502 0.45473110315997983 0.1434503498826451 -0.2266928530120887 -0.5629677570023885 0.31723064669202716 0.27606705723772346
 0.45473110315996873 0.14345034988263447 0.4547311031600577 0.1434503498826968 0.3172306466920271 0.2760670572377234 -0.22669285301190112 -0.562967757002319
181500000.0 -0.2424199270407028 -0.5521797177443246 0.33250453091423937 0.2659267828686964 0.4549576980631068 0.14312646743806137 0.4549576980631733 0.1431264674381208
 0.33250453091423926 0.2659267828686963 -0.24241992704047616 -0.5521797177442526 0.4549576980631843 0.14312646743813132 0.4549576980632626 0.14312646743818289
 0.45495769806310654 0.14312646743806132 0.4549576980631845 0.14312646743813132 -0.22788911302069448 -0.5620137482202269 0.317973716894224 0.2757608133445919
 0.4549576980631731 0.14312646743812069 0.4549576980632623 0.1431264674381829 0.3179737168942239 0.27576081334459185 -0.22788911302050677 -0.5620137482201576
182000000.0 -0.24356416748426626 -0.5512096042429094 0.3331988649300457 0.26560190531025957 0.45518265127698526 0.1428038494665734 0.45518265127705193 0.14280384946663283
 0.3331988649300456 0.26560190531025935 -0.24356416748403953 -0.5512096042428376 0.455182651277063 0.14280384946664323 0.45518265127714136 0.14280384946669467
 0.45518265127698504 0.14280384946657343 0.4551826512770631 0.1428038494666432 -0.2290781600509459 -0.5610614549118471 0.31871285749671824 0.2754537559791904
 0.4551826512770517 0.14280384946663263 0.4551826512771412 0.1428038494666948 0.3187128574967181 0.2754537559791904 -0.229078160050758 -0.5610614549117782
182500000.0 -0.24470135896235948 -0.5502414959913665 0.3338894028560066 0.265276515297394 0.4554059780530512 0.1424824903472355 0.45540597805311805 0.14248249034729488
 0.3338894028560064 0.26527651529739393 -0.24470135896213258 -0.5502414959912947 0.45540597805312905 0.14248249034730545 0.45540597805320754 0.14248249034735688
 0.45540597805305105 0.14248249034723556 0.4554059780531291 0.1424824903473054 -0.23026004638410993 -0.5601108877078977 0.3194480902777502 0.27514590701391856
 0.45540597805311783 0.14248249034729465 0.45540597805320726 0.14248249034735672 0.31944809027775 0.27514590701391833 -0.23026004638392208 -0.5601108877078289
183000000.0 -0.24583155417001143 -0.5492754006378598 0.33457616722283906 0.26495063170284183 0.45562769347346094 0.14216238446775922 0.455627693473528 0.14216238446781845
 0.3345761672228389 0.2649506317028417 -0.2458315541697847 -0.549275400637788 0.4556276934735389 0.14216238446782903 0.45562769347361753 0.14216238446788032
 0.45562769347346077 0.1421623844677593 0.45562769347353893 0.142162384467829 -0.23143482389219422 -0.5591620569410624 0.3201794369450145 0.2748372880060376
 0.4556276934735276 0.1421623844678184 0.4556276934736173 0.14216238446788032 0.32017943694501433 0.27483728800603746 -0.2314348238920061 -0.5591620569409935
183500000.0 -0.2469548053694636 -0.5483113255587189 0.33525918046291203 0.26462427310924164 0.4558478124531502 0.14184352622498994 0.45584781245321737 0.14184352622504925
 0.33525918046291203 0.2646242731092416 -0.24695480536923653 -0.5483113255586471 0.4558478124532284 0.14184352622505964 0.455847812453307 0.141843526225111
 0.45584781245315004 0.14184352622499002 0.45584781245322836 0.14184352622505964 -0.232602544040883 -0.5582149726512123 0.3209069191343242 0.2745279202017285
 0.4558478124532171 0.1418435262250492 0.4558478124533068 0.14184352622511098 0.3209069191343241 0.2745279202017285 -0.23260254404069472 -0.5582149726511437
184000000.0 -0.24807116439358448 -0.5473492778634569 0.33593846490944856 0.26429745781308683 0.4560663497419422 0.14152591002543755 0.45606634974200966 0.1415259100254968
 0.33593846490944845 0.2642974578130866 -0.24807116439335766 -0.5473492778633857 0.4560663497420206 0.14152591002550696 0.4560663497420994 0.14152591002555823
 0.456066349741942 0.14152591002543746 0.45606634974202065 0.141525910025507 -0.23376325789246666 -0.5572696445904795 0.3216305584083235 0.2742178245401024
 0.4560663497420093 0.14152591002549653 0.45606634974209925 0.14152591002555823 0.3216305584083233 0.27421782454010224 -0.23376325789227811 -0.5572696445904108
184500000.0 -0.24918068264927068 -0.5463892643997053 0.3366140427957673 0.2639702038286349 0.4562833199266257 0.14120953028578817 0.45628331992669324 0.14120953028584735
 0.3366140427957672 0.26397020382863484 -0.24918068264904333 -0.5463892643996341 0.45628331992670434 0.14120953028585792 0.45628331992678334 0.14120953028590907
 0.45628331992662546 0.14120953028578825 0.45628331992670434 0.14120953028585792 -0.23491701610876056 -0.5563260822282432 0.3223503762552496 0.2739070216571663
 0.45628331992669297 0.1412095302858473 0.4562833199267831 0.14120953028590905 0.3223503762552495 0.2739070216571661 -0.23491701610857188 -0.5563260822281748
185000000.0 -0.25028341112082925 -0.5454312917580624 0.3372859362545655 0.26364252889176804 0.4564987374330056 0.14089438143340124 0.4564987374330733 0.1408943814334602
 0.3372859362545654 0.263642528891768 -0.25028341112060176 -0.5454312917579912 0.4564987374330845 0.14089438143347086 0.45649873743316355 0.14089438143352198
 0.45649873743300545 0.14089438143340122 0.45649873743308456 0.14089438143347077 -0.23606386895401574 -0.5553842947560457 0.3230663940877449 0.27359553188974456
 0.4564987374330731 0.14089438143346011 0.4564987374331634 0.14089438143352173 0.3230663940877448 0.2735955318897445 -0.23606386895382708 -0.5553842947559776
185500000.0 -0.2513794003733454 -0.5444753662768659 0.3379541673172424 0.26331445046380514 0.45671261652792505 0.14058045790678556 0.4567126165279929 0.14058045790684465
 0.3379541673172424 0.2633144504638051 -0.2513794003731177 -0.5444753662767948 0.45671261652800405 0.14058045790685503 0.45671261652808337 0.14058045790690601
 0.45671261652792483 0.14058045790678564 0.456712616528004 0.1405804579068549 -0.23720386629782167 -0.5544442910924217 0.3237786332417114 0.27328337527935415
 0.4567126165279926 0.14058045790684442 0.45671261652808304 0.14058045790690588 0.32377863324171147 0.273283375279354 -0.23720386629763293 -0.5544442910923536
186000000.0 -0.25246870055603204 -0.5435214940468804 0.3386187579132591 0.2629859857352661 0.4569249713212598 0.14026775415606313 0.45692497132132787 0.14026775415612205
 0.3386187579132592 0.2629859857352661 -0.25246870055580417 -0.5435214940468096 0.45692497132133914 0.1402677541561326 0.4569249713214185 0.14026775415618342
 0.4569249713212597 0.14026775415606324 0.4569249713213391 0.14026775415613255 -0.23833705761799676 -0.5535060798876557 0.32448711497521654 0.2729705715760348
 0.45692497132132764 0.140267754156122 0.45692497132141807 0.1402677541561835 0.3244871149752164 0.2729705715760347 -0.238337057617808 -0.5535060798875877
186500000.0 -0.25355136140556195 -0.5425696809159094 0.339279729869536 0.26265715162959113 0.45713581576788603 0.13995626464341618 0.4571358157679542 0.13995626464347513
 0.3392797298695358 0.262657151629591 -0.25355136140533385 -0.5425696809158387 0.4571358157679654 0.13995626464348554 0.4571358157680449 0.13995626464353642
 0.4571358157678858 0.13995626464341626 0.4571358157679656 0.13995626464348548 -0.23946349200347053 -0.552569669528463 0.3251918604674375 0.272657140242138
 0.45713581576795387 0.13995626464347502 0.4571358157680447 0.13995626464353644 0.3251918604674373 0.2726571402421379 -0.23946349200328132 -0.5525696695283949
187000000.0 -0.2546274322493826 -0.5416199324933287 0.33993710490988793 0.26232796480681003 0.4573451636696203 0.1396459838435175 0.4573451636696886 0.13964598384357638
 0.33993710490988793 0.2623279648068099 -0.25462743224915463 -0.5416199324932583 0.45734516366969985 0.13964598384358665 0.45734516366977956 0.1396459838436374
 0.45734516366962 0.1396459838435174 0.4573451636696999 0.13964598384358662 -0.24058321815715542 -0.5516350681425934 0.32589289081765344 0.27234310045606785
 0.4573451636696883 0.13964598384357615 0.4573451636697793 0.13964598384363744 0.3258928908176533 0.27234310045606774 -0.24058321815696612 -0.5516350681425257
187500000.0 -0.25569696200901476 -0.5406722541545435 0.34059090465449327 0.26199844166716796 0.4575530286771337 0.13933690624394712 0.4575530286772022 0.13933690624400585
 0.34059090465449315 0.26199844166716785 -0.2556969620087868 -0.5406722541544732 0.45755302867721337 0.1393369062440163 0.4575530286772931 0.13933690624406692
 0.45755302867713343 0.13933690624394707 0.4575530286772134 0.13933690624401623 -0.2416962843988065 -0.5507022836033655 0.3265902270442776 0.2720284711159829
 0.45755302867720193 0.1393369062440057 0.4575530286772929 0.1393369062440669 0.3265902270442775 0.2720284711159829 -0.24169628439861723 -0.5507022836032979
188000000.0 -0.2567599992033308 -0.5397266510453712 0.34124115061939736 0.26166859835470346 0.4577594242918397 0.13902902634559397 0.45775942429190825 0.1390290263456526
 0.34124115061939725 0.2616685983547034 -0.25675999920310294 -0.539726651045301 0.45775942429191946 0.13902902634566297 0.4577594242919992 0.13902902634571343
 0.45775942429183947 0.13902902634559405 0.4577594242919195 0.13902902634566294 -0.24280273866787264 -0.549771323534125 0.3272838900839318 0.2717132708434507
 0.4577594242919079 0.13902902634565265 0.45775942429199884 0.13902902634571362 0.32728389008393155 0.2717132708434506 -0.24280273866768348 -0.5497713235340573
188500000.0 -0.25781659195181594 -0.538783128086349 0.3418878642160496 0.2613384507607836 0.45796436386775585 0.13872233866304398 0.4579643638678246 0.13872233866310268
 0.3418878642160495 0.26133845076078366 -0.25781659195158785 -0.5387831280862789 0.4579643638678358 0.138722338663113 0.4579643638679159 0.13872233866316366
 0.45796436386775563 0.1387223386630441 0.45796436386783584 0.13872233866311295 -0.2439026285263339 -0.5488421953126342 0.3279739007905598 0.27139751798706213
 0.4579643638678243 0.13872233866310263 0.45796436386791556 0.13872233866316355 0.3279739007905597 0.271397517987062 -0.24390262852614422 -0.5488421953125667
189000000.0 -0.2588667879778118 -0.5378416899769718 0.3425310667508738 0.26100801452759065 0.45816786061334147 0.13841683772495292 0.45816786061341047 0.13841683772501137
 0.3425310667508738 0.26100801452759054 -0.2588667879775839 -0.5378416899769021 0.45816786061342163 0.13841683772502164 0.45816786061350173 0.1384168377250721
 0.4581678606133413 0.1384168377249528 0.4581678606134217 0.1384168377250216 -0.24499600116152717 -0.5479149060753903 0.3286602799345817 0.27108123062600215
 0.4581678606134102 0.13841683772501112 0.45816786061350157 0.13841683772507202 0.3286602799345816 0.27108123062600203 -0.24499600116133768 -0.5479149060753232
189500000.0 -0.25991063461174113 -0.5369023411998557 0.3431707794248686 0.2606773050515681 0.4583699275933083 0.13811251807440716 0.4583699275933774 0.1381125180744656
 0.3431707794248685 0.26067730505156794 -0.2599106346115127 -0.5369023411997861 0.45836992759338874 0.13811251807447586 0.45836992759346895 0.1381125180745263
 0.4583699275933082 0.13811251807440705 0.4583699275933889 0.1381125180744758 -0.24608290338896419 -0.546989462721874 0.32934304820208465 0.2707644265735795
 0.4583699275933771 0.13811251807446537 0.4583699275934687 0.13811251807452618 0.3293430482020844 0.27076442657357946 -0.24608290338877467 -0.5469894627218069
190000000.0 -0.2609481787943126 -0.535965086024833 0.3438070233332399 0.2603463374868196 0.45857057773040827 0.1378093742692705 0.45857057773047744 0.13780937426932893
 0.34380702333323987 0.2603463374868197 -0.26094817879408394 -0.5359650860247631 0.45857057773048904 0.1378093742693394 0.45857057773056925 0.13780937426938966
 0.45857057773040805 0.13780937426927056 0.4585705777304889 0.13780937426933926 -0.24716338165513255 -0.5460658719187323 0.3300222261940524 0.2704471233807124
 0.45857057773047727 0.1378093742693289 0.4585705777305689 0.13780937426938958 0.33002222619405236 0.2704471233807124 -0.24716338165494278 -0.5460658719186654
190500000.0 -0.261979467079709 -0.5350299285129769 0.3444398194650615 0.26001512674846766 0.45876982380719555 0.13750740088252003 0.45876982380726505 0.13750740088257846
 0.3444398194650615 0.2600151267484675 -0.2619794670794804 -0.5350299285129076 0.45876982380727643 0.13750740088258862 0.45876982380735687 0.13750740088263885
 0.4587698238071954 0.1375074008825201 0.4587698238072765 0.13750740088258875 -0.24823748204028545 -0.5451441401038919 0.3306978344256304 0.2701293383393761
 0.45876982380726467 0.13750740088257826 0.45876982380735665 0.13750740088263894 0.33069783442563033 0.27012933833937586 -0.2482374820400955 -0.5451441401038252
191000000.0 -0.26300454563875497 -0.5340968725205618 0.34506918870296666 0.259683687515964 0.45896767846776587 0.13720659250256523 0.4589676784678353 0.13720659250262343
 0.3450691887029664 0.2596836875159639 -0.26300454563852604 -0.5340968725204924 0.4589676784678468 0.13720659250263392 0.4589676784679273 0.137206592502684
 0.45896767846776554 0.13720659250256512 0.45896767846784686 0.13720659250263362 -0.2493052502612218 -0.5442242734906089 0.331369893325426 0.26981108848600427
 0.4589676784678351 0.13720659250262324 0.458967678467927 0.13720659250268394 0.3313698933254259 0.26981108848600416 -0.2493052502610318 -0.5442242734905423
191500000.0 -0.26402346026206586 -0.5331659217029506 0.3456951518228668 0.25935203423636416 0.459164154219471 0.13690694373356058 0.4591641542195407 0.1369069437336187
 0.3456951518228667 0.25935203423636405 -0.264023460261837 -0.5331659217028817 0.4591641542195521 0.13690694373362908 0.4591641542196328 0.13690694373367907
 0.45916415421947065 0.13690694373356052 0.45916415421955203 0.13690694373362905 -0.2503667316740499 -0.5433062780714504 0.33203842323484334 0.26949239060485697
 0.4591641542195404 0.13690694373361847 0.45916415421963247 0.13690694373367904 0.3320384232348433 0.2694923906048568 -0.25036673167385987 -0.5433062780713839
192000000.0 -0.26503625636317785 -0.532237079518423 0.3463177294936977 0.25902018112755465 0.45935926343461136 0.13660844919570272 0.45935926343468125 0.13660844919576082
 0.34631772949369766 0.2590201811275546 -0.2650362563629488 -0.5322370795183541 0.45935926343469263 0.13660844919577111 0.45935926343477346 0.13660844919582105
 0.4593592634346112 0.1366084491957027 0.45935926343469263 0.13660844919577103 -0.25142197127694027 -0.5423901596222166 0.33270344440745275 0.26917326123134155
 0.4593592634346808 0.13660844919576073 0.4593592634347732 0.13660844919582107 0.3327034444074526 0.26917326123134144 -0.25142197127675003 -0.5423901596221502
192500000.0 -0.266042978981658 -0.531310349231934 0.34693694227719196 0.2586881421814396 0.4595530183521041 0.13631110352551637 0.45955301835217405 0.1363111035255745
 0.3469369422771919 0.25868814218143954 -0.26604297898142915 -0.531310349231865 0.4595530183521855 0.1363111035255847 0.4595530183522663 0.1363111035256347
 0.45955301835210394 0.13631110352551634 0.4595530183521856 0.13631110352558456 -0.2524710137128646 -0.5414759237057969 0.3333649770083913 0.2688537166552957
 0.45955301835217394 0.1363111035255743 0.45955301835226614 0.13631110352563458 0.3333649770083912 0.26885371665529567 -0.25247101371267433 -0.5414759237057306
193000000.0 -0.267043672786196 -0.5303857339188108 0.34755281062767845 0.2583559311670884 0.4597454310791299 0.13601490137613154 0.4597454310792 0.13601490137618957
 0.3475528106276783 0.2583559311670883 -0.2670436727859673 -0.5303857339187423 0.45974543107921145 0.1360149013761998 0.45974543107929244 0.13601490137624958
 0.45974543107912963 0.13601490137613156 0.4597454310792116 0.13601490137619976 -0.25351390327232154 -0.5405635756759631 0.3340230411137965 0.2685337729242341
 0.4597454310791995 0.13601490137618938 0.45974543107929206 0.13601490137624953 0.3340230411137962 0.2685337729242339 -0.2535139032721313 -0.540563575675897
193500000.0 -0.2680383820776754 -0.5294632364683891 0.34816535489190475 0.2580235616338388 0.4599365135927561 0.1357198374175463 0.45993651359282633 0.1357198374176044
 0.3481653548919047 0.25802356163383877 -0.2680383820774463 -0.5294632364683207 0.4599365135928379 0.13571983741761448 0.459936513592919 0.13571983741766439
 0.45993651359275584 0.13571983741754637 0.45993651359283777 0.13571983741761456 -0.25455068389604824 -0.5396531206811066 0.3346776567102701 0.2682134458465498
 0.4599365135928261 0.1357198374176042 0.45993651359291876 0.13571983741766422 0.33467765671027 0.26821344584654977 -0.25455068389585767 -0.5396531206810408
194000000.0 -0.2690271507922247 -0.5285428595875837 0.34877459530888694 0.2576910469143633 0.4601262777415396 0.1354259063368826 0.46012627774160997 0.1354259063369405
 0.3487745953088869 0.25769104691436323 -0.2690271507919956 -0.5285428595875156 0.4601262777416216 0.13542590633695065 0.4601262777417027 0.1354259063370003
 0.4601262777415394 0.13542590633688262 0.4601262777416216 0.13542590633695062 -0.2555813991777188 -0.5387445636679099 0.3353288436943736 0.2678927509946827
 0.4601262777416097 0.13542590633694038 0.4601262777417024 0.13542590633700036 0.3353288436943734 0.2678927509946825 -0.2555813991775283 -0.538744563667844
194500000.0 -0.2700100225042509 -0.5276246058044026 0.34938055200978024 0.2573584001276926 0.46031473524710614 0.1351331028386287 0.4603147352471766 0.1351331028386864
 0.34938055200978 0.25735840012769245 -0.2700100225040217 -0.5276246058043346 0.4603147352471882 0.13513310283869667 0.4603147352472694 0.13513310283874622
 0.4603147352471057 0.1351331028386286 0.4603147352471881 0.13513310283869664 -0.25660609236662935 -0.5378379093849615 0.33597662187215077 0.2675717037082447
 0.4603147352471763 0.1351331028386864 0.4603147352472692 0.13513310283874633 0.3359766218721507 0.2675717037082446 -0.25660609236643844 -0.5378379093848956
195000000.0 -0.2709870404294514 -0.5267084774713986 0.34998324501777395 0.2570256341822008 0.46050189770570926 0.13484142164487314 0.46050189770577993 0.13484142164493085
 0.34998324501777367 0.25702563418220076 -0.270987040429222 -0.5267084774713305 0.4605018977057915 0.13484142164494117 0.4605018977058728 0.13484142164499063
 0.4605018977057088 0.13484142164487306 0.4605018977057915 0.13484142164494092 -0.25762480637036717 -0.5369331623863142 0.3366210109586822 0.26725031909710956
 0.46050189770577954 0.13484142164493076 0.4605018977058726 0.13484142164499058 0.3366210109586821 0.2672503190971095 -0.25762480637017626 -0.5369331623862483
195500000.0 -0.2719582474278058 -0.5257944767690639 0.3505826942480091 0.25669276177855377 0.46068777658976856 0.13455085749553058 0.46068777658983934 0.13455085749558804
 0.3505826942480089 0.2566927617785536 -0.27195824742757624 -0.525794476768996 0.460687776589851 0.1345508574955983 0.46068777658993243 0.1345508574956477
 0.4606877765897682 0.13455085749553045 0.46068777658985105 0.13455085749559828 -0.258637583757468 -0.5360303270349819 0.3372620305776639 0.26692861204446516
 0.460687776589839 0.13455085749558793 0.46068777658993204 0.13455085749564769 0.33726203057766374 0.26692861204446505 -0.2586375837572775 -0.5360303270349166
196000000.0 -0.27292368600654965 -0.5248826057091674 0.35117891950751706 0.2563597954126135 0.4608723832493864 0.1342614051485533 0.46087238324945745 0.13426140514861098
 0.3511789195075168 0.2563597954126134 -0.2729236860063199 -0.5248826057090995 0.460872383249469 0.1342614051486212 0.46087238324955077 0.13426140514867066
 0.4608723832493861 0.1342614051485533 0.460872383249469 0.134261405148621 -0.2596444667600576 -0.5351294075063864 0.33789970026101696 0.26660659720982566
 0.46087238324945723 0.13426140514861093 0.46087238324955054 0.1342614051486706 0.33789970026101684 0.2666065972098256 -0.25964446675986613 -0.535129407506321
196500000.0 -0.273883398323127 -0.5239728661380337 0.35177194049517824 0.2560267473783095 0.4610557289138441 0.13397305938013981 0.4610557289139154 0.13397305938019732
 0.35177194049517824 0.2560267473783093 -0.2738833983228973 -0.5239728661379661 0.4610557289139269 0.13397305938020737 0.4610557289140087 0.13397305938025664
 0.46105572891384394 0.1339730593801396 0.46105572891392693 0.13397305938020732 -0.26064549727647685 -0.5342304077917404 0.3385340394485207 0.2662842890320093
 0.46105572891391505 0.13397305938019705 0.4610557289140083 0.13397305938025655 0.3385340394485205 0.2662842890320091 -0.2606454972762857 -0.5342304077916751
197000000.0 -0.2748374261881225 -0.5230652597397691 0.3523617768017044 0.25569362977046983 0.4612378246930787 0.13368581498492796 0.46123782469314994 0.13368581498498533
 0.3523617768017042 0.25569362977046983 -0.27483742618789264 -0.5230652597397015 0.4612378246931617 0.13368581498499563 0.46123782469324337 0.13368581498504484
 0.46123782469307856 0.133685814984928 0.4612378246931618 0.13368581498499554 -0.2616407168738985 -0.5333333317013832 0.33916506748747316 0.2659617017320775
 0.4612378246931495 0.1336858149849851 0.4612378246932431 0.13368581498504467 0.3391650674874729 0.2659617017320773 -0.26164071687370766 -0.5333333317013182
197500000.0 -0.27578581106817435 -0.5221597880394291 0.352948447909636 0.25536045448761624 0.46141868157913885 0.1333996667761857 0.4614186815792101 0.13339966677624304
 0.35294844790963575 0.25536045448761624 -0.27578581106794436 -0.5221597880393616 0.46141868157922183 0.13339966677625348 0.46141868157930377 0.13339966677630258
 0.4614186815791385 0.13339966677618573 0.4614186815792219 0.1333996667762533 -0.262630166790922 -0.5324381828680598 0.33979280363237596 0.2656388493162405
 0.4614186815792098 0.13339966677624307 0.46141868157930355 0.13339966677630252 0.33979280363237585 0.2656388493162403 -0.26263016679073065 -0.5324381828679948
198000000.0 -0.27672859408886746 -0.5212564524061355 0.3535319731933628 0.2550272332347199 0.4615983104476218 0.1331146095859881 0.4615983104476932 0.13311460958604548
 0.3535319731933626 0.25502723323471976 -0.2767285940886376 -0.5212564524060683 0.461598310447705 0.13311460958605562 0.4615983104477869 0.13311460958610472
 0.46159831044762145 0.1331146095859883 0.46159831044770494 0.13311460958605567 -0.26361388794015717 -0.531544964750145 0.3404172670446447 0.26531574557872306
 0.4615983104476929 0.13311460958604548 0.4615983104477868 0.13311460958610483 0.34041726704464453 0.2653157455787229 -0.2636138879399655 -0.5315449647500801
198500000.0 -0.27766581603760565 -0.5203552540561386 0.35411237191916156 0.2546939775259235 0.46177672205909104 0.13283063826538888 0.4617767220591628 0.13283063826544617
 0.35411237191916156 0.2546939775259233 -0.2776658160373755 -0.5203552540560716 0.46177672205917464 0.13283063826545616 0.46177672205925674 0.13283063826550523
 0.46177672205909104 0.13283063826538882 0.46177672205917464 0.13283063826545613 -0.2645919209107928 -0.5306536806348193 0.3410384767923412 0.2649924041045976
 0.46177672205916265 0.13283063826544605 0.46177672205925663 0.13283063826550529 0.34103847679234106 0.2649924041045975 -0.2645919209106011 -0.5306536806347546
199000000.0 -0.27859751736646315 -0.519456194055828 0.3546896632452507 0.25436069868722627 0.4619539270604751 0.13254774768458333 0.461953927060547 0.13254774768464053
 0.35468966324525064 0.2543606986872262 -0.27859751736623284 -0.5194561940557609 0.4619539270605588 0.1325477476846507 0.46195392706064115 0.1325477476846995
 0.4619539270604749 0.13254774768458327 0.4619539270605587 0.1325477476846506 -0.2655643059711503 -0.5297643336411904 0.3416564518499303 0.26466883827258214
 0.46195392706054655 0.1325477476846403 0.46195392706064076 0.13254774768469954 0.34165645184993015 0.264668838272582 -0.26556430597095876 -0.5297643336411259
199500000.0 -0.2795237381950187 -0.5185592733246915 0.35526386622186457 0.25402740785913225 0.4621299359864459 0.13226593273306275 0.46212993598651775 0.13226593273311985
 0.3552638662218644 0.25402740785913214 -0.27952373819478843 -0.5185592733246248 0.4621299359865297 0.13226593273313006 0.4621299359866119 0.13226593273317885
 0.46212993598644575 0.13226593273306264 0.4621299359865297 0.1322659327331298 -0.26653108307122086 -0.5288769267233661 0.34227121109805936 0.26434506125779994
 0.46212993598651736 0.13226593273311965 0.4621299359866116 0.13226593273317877 0.34227121109805914 0.2643450612577999 -0.26653108307102924 -0.5288769267233014
200000000.0 -0.2804445183131664 -0.5176644926382242 0.3558349997913426 0.253694115999266 0.4623047592607806 0.1319851883197632 0.4623047592608527 0.13198518831982034
 0.35583499979134237 0.25369411599926595 -0.2804445183129361 -0.5176644926381573 0.4623047592608645 0.13198518831983044 0.4623047592609469 0.13198518831987915
 0.46230475926078035 0.13198518831976327 0.4623047592608646 0.13198518831983033 -0.26749229184518897 -0.527991462673475 0.34288277332335765 0.2640210860345105
 0.46230475926085235 0.13198518831982023 0.4623047592609468 0.13198518831987915 0.3428827733233574 0.2640210860345103 -0.26749229184499723 -0.5279914626734106
