! Created with skrf 2.0.1 (http://scikit-rf.org).
# Hz S RI R 100.0 
!freq ReS11 ImS11 ReS21 ImS21 ReS12 ImS12 ReS22 ImS22
500000.0 0.9999859392547618 -0.005302951326554175 2.2403093718459165e-19 4.314101903441417e-17 2.29961167874772e-19 4.4282987185325135e-17 0.9999870820250669 -0.005082891204049912
1000000.0 0.9999437582052495 -0.01060567896748329 8.960874854318741e-19 8.627680228617663e-17 9.198074482815415e-19 8.856059999375191e-17 0.9999483291014927 -0.010165585429933179
1500000.0 0.9998734604098202 -0.01590795926861239 2.0160608658344956e-18 1.2940211515002878e-16 2.069427182871291e-18 1.328274652569413e-16 0.9998837442327582 -0.015247885724927428
2000000.0 0.9997750517982344 -0.021209568638657406 3.583769816915061e-18 1.725117253750307e-16 3.678634312068695e-18 1.7707821222319326e-16 0.9997933324240188 -0.020329595187191928
2500000.0 0.9996485406704065 -0.026510283580647446 5.598960649659011e-18 2.15600404240553e-16 5.74716843156175e-18 2.2130747376456765e-16 0.9996771006811351 -0.025410516991191196
3000000.0 0.9994939376946557 -0.031809880723319174 8.061307324521786e-18 2.5866292773086726e-16 8.274694871347361e-18 2.6550988758256664e-16 0.9995350580093141 -0.030490454413097823
3500000.0 0.9993112559054552 -0.03710813685247413 1.0970411550371505e-17 3.016940777078702e-16 1.1260804797293103e-17 3.09680097411902e-16 0.9993672154113667 -0.035569210856167814
4000000.0 0.9991005107006877 -0.04240482894228968 1.432580290531734e-17 3.446886430814784e-16 1.4705015335163974e-17 3.538127542218705e-16 0.9991735858855786 -0.04064658987608148
4500000.0 0.9988617198384019 -0.04769973418657453 1.8126938979362656e-17 3.8764142097722725e-16 1.860676971705167e-17 3.9790251741485983e-16 0.9989541844231916 -0.0457223952062429
5000000.0 0.9985949034330726 -0.05299263002995931 2.2373205538811288e-17 4.3054721790061756e-16 2.2965437450132767e-17 4.4194405602151625e-16 0.998709028005507 -0.05079643078303148
5500000.0 0.9983000839513694 -0.05828329419901349 2.706391671234404e-17 4.734008508977458e-16 2.778031450767079e-17 4.859320498920978e-16 0.9984381356005995 -0.05586850077099831
6000000.0 0.99797728620743 -0.06357150473327906 3.219831519867215e-17 5.161971487117659e-16 3.305062354216641e-17 5.298611908835479e-16 0.9981415281596517 -0.06093840958800102
6500000.0 0.9976265373576455 -0.06885704001621235 3.777557249566323e-17 5.589309529347239e-16 3.8775514120548433e-17 5.737261840418196e-16 0.9978192286129085 -0.06600596193026999
7000000.0 0.9972478668949559 -0.07413967880602462 4.379478915082481e-17 6.015971191543184e-16 4.495406298128782e-17 6.175217487789915e-16 0.9974712618652481 -0.07107096279739938
7500000.0 0.9968413066426589 -0.07941920026641244 5.0254995033019854e-17 6.441905180951343e-16 5.1585274313305664e-17 6.612426200447114e-16 0.9970976547913801 -0.07613321751725634
8000000.0 0.9964068907477367 -0.08469538399716947 5.715514962527827e-17 6.867060367539086e-16 5.866808005653565e-17 7.048835494915123e-16 0.9966984362306623 -0.08119253177080148
8500000.0 0.9959446556736993 -0.08996801006466984 6.449414233855784e-17 7.291385795283849e-16 6.620134022399024e-17 7.48439306633548e-16 0.996273636981547 -0.08624871161681431
9000000.0 0.9954546401929513 -0.09523685903221514 7.22707928462978e-17 7.714830693393216e-16 7.41838432451704e-17 7.919046799983037e-16 0.9958232897956542 -0.09130156351651703
9500000.0 0.9949368853786816 -0.10050171199023614 8.048385143959843e-17 8.137344487452179e-16 8.261430633064662e-17 8.352744782708265e-16 0.9953474293714715 -0.09635089435808968
10000000.0 0.9943914345962822 -0.1057623505863401 8.913199940284895e-17 8.558876810493319e-16 9.149137585763026e-17 8.785435314300496e-16 0.9948460923476904 -0.10139651148107096
10500000.0 0.9938183334942972 -0.11101855705519574 9.821384940961779e-17 8.979377513985675e-16 1.0081362777634297e-16 9.217066918767651e-16 0.994319317296174 -0.10643822270063766
11000000.0 0.9932176299949069 -0.11627011424824694 1.0772794593860786e-16 9.39879667873809e-16 1.1057956803698275e-16 9.647588355528214e-16 0.993767144714563 -0.11147583633175664
11500000.0 0.9925893742839487 -0.12151680566324673 1.176727657094705e-16 9.81708462571289e-16 1.2078763303707412e-16 1.0076948630511175e-15 0.9931896170185208 -0.11650916121320311
12000000.0 0.9919336188004827 -0.12675841547360397 1.2804671813826312e-16 1.0234191926745904e-15 1.3143619008898183e-16 1.0505097007159765e-15 0.9925867785336197 -0.12153800673143843
12500000.0 0.9912504182259009 -0.13199472855753303 1.3884814581232404e-16 1.0650069415168668e-15 1.425235379073561e-16 1.0931983017334893e-15 0.991958675486875 -0.12656218284434212
13000000.0 0.9905398294725877 -0.13722553052700004 1.5007532498433208e-16 1.1064668196328977e-15 1.5404790711627026e-16 1.1357556472114157e-15 0.991305355997925 -0.13158150010479133
13500000.0 0.9898019116721365 -0.14245060775645654 1.61726466085306e-16 1.1477939658005811e-15 1.6600746077579941e-16 1.1781767472482437e-15 0.9906268700698632 -0.13659576968408185
14000000.0 0.9890367261631223 -0.14766974741135275 1.7379971425629274e-16 1.188983548071482e-15 1.784002949277828e-16 1.2204566419910212e-15 0.9899232695797241 -0.1416048033951846
14500000.0 0.9882443364784415 -0.1528827374764231 1.8629314989848382e-16 1.2300307647900601e-15 1.9122443916050253e-16 1.2625904026815619e-15 0.9891946082686296 -0.14660841371583255
15000000.0 0.9874248083322181 -0.15808936678373586 1.9920478924149016e-16 1.2709308456012072e-15 2.0447785719200017e-16 1.3045731326906508e-15 0.9884409417315924 -0.15160641381143014
15500000.0 0.9865782096062851 -0.16328942504049948 2.1253258492949933e-16 1.3116790524457301e-15 2.181584474717508e-16 1.3463999685398817e-15 0.9876623274069894 -0.15659861755778273
16000000.0 0.9857046103362448 -0.1684827028566183 2.262744266250284e-16 1.352270680543425e-15 2.322640438003968e-16 1.3880660809107514e-15 0.9868588245656995 -0.16158483956363662
16500000.0 0.9848040826971122 -0.1736689917719897 2.4042814162998067e-16 1.3927010593633935e-15 2.4679241596724486e-16 1.4295666756406597e-15 0.9860304942999155 -0.16656489519302745
17000000.0 0.9838767009885482 -0.17884808428353616 2.549914955237045e-16 1.4329655535812559e-15 2.617412704052143e-16 1.4708969947054656e-15 0.9851773995116344 -0.17153860058742942
17500000.0 0.9829225416196896 -0.18401977387196503 2.6996219281774755e-16 1.4730595640229425e-15 2.771082508629233e-16 1.5120523171882561e-15 0.9842996049008238 -0.17650577268770057
18000000.0 0.981941683093579 -0.18918385502824833 2.8533787762698955e-16 1.5129785285947205e-15 2.9289093909358634e-16 1.553027960233993e-15 0.983397176953277 -0.18146622925581865
18500000.0 0.9809342059911998 -0.19434012327981667 3.011161343568325e-16 1.5527179231991504e-15 3.090868555603957e-16 1.5938192799897159e-15 0.9824701839281539 -0.1864197888964031
19000000.0 0.979900192955128 -0.19948837521645998 3.1729448840611917e-16 1.592273262636661e-15 3.256934601580458e-16 1.6344216725299843e-15 0.9815186958452169 -0.19136627107801643
19500000.0 0.9788397286727988 -0.20462840851592906 3.3387040688544513e-16 1.6316401014924458e-15 3.4270815295005983e-16 1.6748305747672457e-15 0.9805427844717621 -0.19630549615424206
20000000.0 0.977752899859401 -0.20976002196923063 3.508412993505219e-16 1.6708140350083849e-15 3.6012827492156515e-16 1.7150414653468425e-15 0.9795425233092562 -0.20123728538453184
20500000.0 0.9766397952404026 -0.21488301550561084 3.6820451855024323e-16 1.7097906999397095e-15 3.7795110874716144e-16 1.7550498655263487e-15 0.9785179875796737 -0.20616146095481921
21000000.0 0.9755005055337125 -0.21999719021721978 3.859573611891037e-16 1.7485657753961432e-15 3.961738795735211e-16 1.7948513400389825e-15 0.9774692542115528 -0.21107784599789364
21500000.0 0.9743351234314891 -0.22510234838345225 4.040970687036077e-16 1.787134983667246e-15 4.1479375581635024e-16 1.8344414979407906e-15 0.9763964018257614 -0.21598626461353135
22000000.0 0.9731437435815992 -0.2301982934949581 4.2262082805230676e-16 1.8254940910317094e-15 4.338078499713384e-16 1.8738159934413722e-15 0.9752995107209856 -0.22088654188837703
22500000.0 0.9719264625687348 -0.23528483027731698 4.4152577251909657e-16 1.8636389085503622e-15 4.532132194387197e-16 1.912970526717872e-15 0.9741786628589465 -0.22577850391557402
23000000.0 0.9706833788951952 -0.2403617647143718 4.608089825293971e-16 1.9015652928426338e-15 4.730068673610575e-16 1.9519008447119978e-15 0.9730339418493431 -0.23066197781413658
23500000.0 0.9694145929613407 -0.24542890407121523 4.804674864788415e-16 1.9392691468462692e-15 4.931857434738697e-16 1.990602741909847e-15 0.9718654329345344 -0.23553679174806172
24000000.0 0.9681202070457269 -0.25048605691682524 5.004982615740888e-16 1.9767464205600608e-15 5.137467449686971e-16 2.029072061104298e-15 0.9706732229739623 -0.2404027749451754
24500000.0 0.9668003252849215 -0.2555330331463425 5.20898234685373e-16 2.0139931117693894e-15 5.34686717368221e-16 2.0673046941397553e-15 0.9694574004283176 -0.24525975771570957
25000000.0 0.9654550536530202 -0.2605696440029879 5.416642832104034e-16 2.0510052667543938e-15 5.560024554130317e-16 2.1052965826390686e-15 0.9682180553434621 -0.2501075714706071
25500000.0 0.9640844999408583 -0.26559570209961153 5.627932359492153e-16 2.087778980980553e-15 5.776907039596355e-16 2.1430437187123904e-15 0.9669552793341023 -0.254946048739548
26000000.0 0.9626887737349329 -0.2706110214398725 5.842818739895805e-16 2.1243103997715206e-15 5.997481588893046e-16 2.1805421456478253e-15 0.9656691655672305 -0.25977502318869783
26500000.0 0.9612679863960424 -0.27561541743904316 6.061269316025764e-16 2.1605957189640407e-15 6.221714680273504e-16 2.217787958583677e-15 0.9643598087453289 -0.26459432963817003
27000000.0 0.9598222510376456 -0.2806087069444328 6.283250971479079e-16 2.1966311855447737e-15 6.449572320724114e-16 2.2547773051621358e-15 0.9630273050893494 -0.2694038040792024
27500000.0 0.9583516825039553 -0.2855907082554293 6.508730139885825e-16 2.2324130982688966e-15 6.68102005535339e-16 2.2915063861642497e-15 0.9616717523214715 -0.27420328369104224
28000000.0 0.9568563973477687 -0.29056124114315246 6.737672814145293e-16 2.2679378082603277e-15 6.916022976872668e-16 2.3279714561260425e-15 0.9602932496476452 -0.2789926068575391
28500000.0 0.9553365138080439 -0.29552012686971657 6.970044555747514e-16 2.3032017195934516e-15 7.154545735164357e-16 2.36416882393563e-15 0.9588918977399218 -0.2837716131834392
29000000.0 0.9537921517872328 -0.300467188207099 7.20581050417607e-16 2.3382012898562204e-15 7.396552546933671e-16 2.4000948534112375e-15 0.9574677987185826 -0.2885401435103817
29500000.0 0.9522234328283743 -0.30540224945561 7.444935386388007e-16 2.372933030694531e-15 7.642007205439455e-16 2.4357459638599746e-15 0.9560210561340685 -0.29329803993259207
30000000.0 0.950630480091957 -0.31032513646196197 7.687383526366772e-16 2.407393508337758e-15 7.89087309030001e-16 2.471118630617287e-15 0.9545517749487151 -0.29804514581227026
30500000.0 0.9490134183325616 -0.31523567663693525 7.933118854744036e-16 2.4415793441053787e-15 8.143113177369615e-16 2.5062093855669917e-15 0.9530600615183037 -0.3027813057946725
31000000.0 0.9473723738752876 -0.320133698972636 8.182104918486232e-16 2.475487214894586e-15 8.398690048681456e-16 2.5410148176417955e-15 0.9515460235734287 -0.30750636582288166
31500000.0 0.9457074745919746 -0.32501903405934524 8.434304890641681e-16 2.5091138536488343e-15 8.657565902452783e-16 2.5755315733042445e-15 0.9500097702006906 -0.3122201731522663
32000000.0 0.9440188498772251 -0.32989151410195616 8.689681580144199e-16 2.5424560498072527e-15 8.919702563148017e-16 2.609756357008033e-15 0.9484514118237201 -0.31692257636462606
32500000.0 0.9423066306242377 -0.33475097293599704 8.94819744166898e-16 2.575510649734874e-15 9.185061491595513e-16 2.6436859316396207e-15 0.9468710601840383 -0.32161342538201887
33000000.0 0.9405709492004571 -0.33959724604323716 9.209814585536647e-16 2.6082745571336392e-15 9.453603795153794e-16 2.6773171189401177e-15 0.9452688283217594 -0.32629257148027163
33500000.0 0.9388119394230524 -0.3444301705668758 9.474494787661365e-16 2.6407447334341485e-15 9.72529023792299e-16 2.7106467999074052e-15 0.943644830556142 -0.33095986730216986
34000000.0 0.9370297365342258 -0.34924958532631 9.742199499538858e-16 2.6729181981681356e-15 1.000008125099724e-15 2.7436719151784683e-15 0.9419991824659951 -0.3356151668703263
34500000.0 0.9352244771763678 -0.3540553308314809 1.0012889858270238e-15 2.7047920293216474e-15 1.0277936942753861e-15 2.776389465391926e-15 0.9403320008699434 -0.34025832559972535
35000000.0 0.9333962993670599 -0.3588472492967979 1.0286526696617546e-15 2.7363633636689455e-15 1.055881710917507e-15 2.8087965115307704e-15 0.9386434038065614 -0.3448892003099435
35500000.0 0.9315453424739353 -0.363625184654637 1.056307055308695e-15 2.767629397087106e-15 1.0842681244198073e-15 2.8408901752452938e-15 0.9369335105143776 -0.3495076492370441
36000000.0 0.9296717471894088 -0.36838898256841507 1.0842481682035499e-15 2.798587384851367e-15 1.1129488550089379e-15 2.8726676391562563e-15 0.9352024414117582 -0.3541135320451439
36500000.0 0.9277756555052787 -0.37313849044523695 1.1124720063797447e-15 2.8292346419112258e-15 1.1419197947839141e-15 2.904126147138287e-15 0.9334503180766753 -0.3587067098376525
37000000.0 0.9258572106872125 -0.3778735574481159 1.140974541482607e-15 2.8595685431473246e-15 1.1711768087571463e-15 2.9352630045835766e-15 0.9316772632263659 -0.36328704516818217
37500000.0 0.9239165572491223 -0.3825940345077661 1.1697517197847063e-15 2.889586523609184e-15 1.2007157358966543e-15 2.966075578645897e-15 0.9298834006968869 -0.3678544020511275
38000000.0 0.9219538409274395 -0.3872997743339671 1.198799463201951e-15 2.9192860787338132e-15 1.2305323901690616e-15 2.996561298465002e-15 0.9280688554225727 -0.37240864597191586
38500000.0 0.919969208655297 -0.3919906314265006 1.2281136703100469e-15 2.9486647645452745e-15 1.26062256158296e-15 3.026717655371473e-15 0.9262337534154012 -0.37694964389692437
39000000.0 0.9179628085366244 -0.39666646208565765 1.257690217360934e-15 2.9777201978352672e-15 1.2909820172322529e-15 3.0565422030720833e-15 0.9243782217442745 -0.381477264283067
39500000.0 0.9159347898201665 -0.4013271244223187 1.2875249592988152e-15 3.0064500563248155e-15 1.3216065023390781e-15 3.086032557815767e-15 0.9225023885142211 -0.38599137708705006
40000000.0 0.9138853028734322 -0.40597247836760436 1.3176137307753825e-15 3.0348520788071276e-15 1.3524917412959075e-15 3.1151863985402578e-15 0.9206063828455217 -0.39049185377429413
40500000.0 0.9118144991565819 -0.4106023856820998 1.3479523471638785e-15 3.0629240652717544e-15 1.3836334387064519e-15 3.1440014669995367e-15 0.918690334852771 -0.3949785673275245
41000000.0 0.9097225311962603 -0.41521670996465065 1.3785366055716042e-15 3.090663877010116e-15 1.4150272804249702e-15 3.1724755678721485e-15 0.9167543756238737 -0.3994513922550297
41500000.0 0.9076095525593852 -0.4198153166607341 1.4093622858505122e-15 3.118069436702537e-15 1.4466689345936145e-15 3.200606568850547e-15 0.9147986371989888 -0.40391020459858734
42000000.0 0.9054757178268943 -0.42439807307040234 1.440425151605512e-15 3.1451387284868905e-15 1.4785540526774223e-15 3.228392400711544e-15 0.9128232525494208 -0.4083548819410594
42500000.0 0.9033211825674645 -0.42896484835580345 1.4717209512001247e-15 3.171869798008983e-15 1.510678270496598e-15 3.255831057368043e-15 0.9108283555564669 -0.4127853034136539
43000000.0 0.9011461033112073 -0.4335155135482776 1.503245418759141e-15 3.198260752454822e-15 1.5430372092557068e-15 3.2829205959021555e-15 0.9088140809902284 -0.41720134970285827
43500000.0 0.8989506375233477 -0.438049941555032 1.5349942751679155e-15 3.224309760564905e-15 1.575626476569419e-15 3.309659136579858e-15 0.9067805644883862 -0.42160290305704023
44000000.0 0.8967349435778953 -0.4425680071653944 1.5669632290679562e-15 3.2500150526306634e-15 1.6084416674844609e-15 3.336044862847358e-15 0.9047279425349508 -0.42598984729272005
44500000.0 0.8944991807313174 -0.4470695870566485 1.599147977848473e-15 3.2753749204732543e-15 1.6414783654974035e-15 3.362076021309312e-15 0.9026563524389921 -0.43036206780051406
45000000.0 0.8922435090962131 -0.45155455979945136 1.6315442086335345e-15 3.3003877174048125e-15 1.6747321435679515e-15 3.3877509216890578e-15 0.9005659323133512 -0.4347194515507495
45500000.0 0.8899680896150075 -0.45602280586283583 1.6641475992645131e-15 3.3250518581723847e-15 1.7081985651273974e-15 3.4130679367710653e-15 0.8984568210533446 -0.43906188709875316
46000000.0 0.8876730840336651 -0.46047420761880015 1.6969538192774957e-15 3.3493658188846925e-15 1.7418731850819e-15 3.438025502325758e-15 0.8963291583154616 -0.44338926458981426
46500000.0 0.8853586548754284 -0.46490864934648407 1.729958530875313e-15 3.3733281369218978e-15 1.7757515508102481e-15 3.46262211701689e-15 0.8941830844960645 -0.4477014757638215
47000000.0 0.8830249654145972 -0.46932601723593964 1.7631573898939184e-15 3.396937410828605e-15 1.809829203155816e-15 3.4868563422917146e-15 0.892018740710096 -0.45199841395957885
47500000.0 0.8806721796503465 -0.4737261993914923 1.7965460467627585e-15 3.4201923001902264e-15 1.844101677412361e-15 3.5107268022540856e-15 0.8898362687697942 -0.4562799741187975
48000000.0 0.8783004622805954 -0.4781090858346999 1.830120147458878e-15 3.4430915254929953e-15 1.8785645043033777e-15 3.5342321835207508e-15 0.8876358111634314 -0.4605460527897697
48500000.0 0.8759099786759319 -0.4824745685069097 1.863875334454422e-15 3.465633867967744e-15 1.9132132109546866e-15 3.5573712350610076e-15 0.8854175110340692 -0.4647965481307212
49000000.0 0.8735008948535999 -0.48682254127141683 1.8978072476572836e-15 3.487818169417741e-15 1.948043321859976e-15 3.5801427680199735e-15 0.8831815121583462 -0.4690313599128495
49500000.0 0.8710733774515568 -0.4911528999152277 1.9319115253445768e-15 3.509643332030736e-15 1.983050359838992e-15 3.602545655525667e-15 0.8809279589252951 -0.47325038952304477
50000000.0 0.8686275937026064 -0.49546554215043 1.9661838050886932e-15 3.5311083181754963e-15 2.0182298469880996e-15 3.624578832480141e-15 0.8786569963152006 -0.4774535399662986
50500000.0 0.8661637114086146 -0.4997603676151743 2.0006197246756387e-15 3.5522121501829978e-15 2.053577305622935e-15 3.6462412953349e-15 0.8763687698784983 -0.4816407158678005
51000000.0 0.8636818989148133 -0.5040372778742686 2.035214923015418e-15 3.572953910112571e-15 2.0890882592128846e-15 3.667532101850844e-15 0.8740634257147251 -0.48581182347472707
51500000.0 0.8611823250841998 -0.5082961764193898 2.0699650410441766e-15 3.593332739503172e-15 2.124758233307111e-15 3.688450370842963e-15 0.871741110451517 -0.4899667706577212
52000000.0 0.8586651592720388 -0.5125369686689185 2.1048657226178852e-15 3.613347839110079e-15 2.160582756451888e-15 3.708995281910052e-15 0.8694019712236718 -0.49410546691206914
52500000.0 0.8561305713004692 -0.5167595619673934 2.1399126153972854e-15 3.632998468627206e-15 2.1965573610989783e-15 3.729166075149691e-15 0.867046155652269 -0.4982278233585729
53000000.0 0.8535787314332252 -0.5209638655845968 2.175101371723896e-15 3.6522839463953265e-15 2.232677584504823e-15 3.7489620508587316e-15 0.8646738118238605 -0.5023337527441243
53500000.0 0.8510098103504776 -0.5251497907142726 2.210427649486824e-15 3.671203649096428e-15 2.2689389696202983e-15 3.768382569219568e-15 0.8622850882697323 -0.5064231694419794
54000000.0 0.8484239791237977 -0.5293172504724756 2.245887112980166e-15 3.689757011434473e-15 2.3053370659708174e-15 3.787427049972445e-15 0.859880133945243 -0.5104959894517399
54500000.0 0.8458214091912546 -0.5334661598955648 2.2814754337507892e-15 3.7079435258028184e-15 2.3418674305265457e-15 3.806094972074069e-15 0.8574590982092439 -0.5145521303990396
55000000.0 0.8432022723326443 -0.5375964359378371 2.3171882914362783e-15 3.725762741938544e-15 2.3785256285625325e-15 3.8243858733427994e-15 0.8550221308035847 -0.518591511534944
55500000.0 0.8405667406448649 -0.5417079974688102 2.3530213745928376e-15 3.743214266563986e-15 2.4153072345085305e-15 3.8422993500906806e-15 0.8525693818327096 -0.5226140537350592
56000000.0 0.8379149865174345 -0.5458007652701559 2.38897038151298e-15 3.760297763015717e-15 2.4522078327883232e-15 3.859835056742603e-15 0.8501010017433481 -0.5266196794983604
56500000.0 0.8352471826081632 -0.5498746620322906 2.4250310210327776e-15 3.777012950861237e-15 2.489223018648351e-15 3.876992705442857e-15 0.8476171413043037 -0.5306083129457361
57000000.0 0.8325635018189812 -0.5539296123506263 2.4611990133285304e-15 3.793359605503686e-15 2.526348398975461e-15 3.893772065649371e-15 0.8451179515863454 -0.5345798798182547
57500000.0 0.8298641172719293 -0.557965542721485 2.4974700907026525e-15 3.809337557774816e-15 2.5635795931036054e-15 3.910172963715915e-15 0.8426035839422077 -0.538534307475157
58000000.0 0.8271492022853151 -0.561982381537684 2.5338399983586315e-15 3.824946693516518e-15 2.6009122336093012e-15 3.926195282462543e-15 0.8400741899866997 -0.5424715248915747
58500000.0 0.8244189303500411 -0.565980059083793 2.570304495164868e-15 3.840186953151164e-15 2.6383419670957035e-15 3.941838960734579e-15 0.83752992157693 -0.5463914626559805
59000000.0 0.8216734751061104 -0.5699585075310732 2.606859354407299e-15 3.855058331241098e-15 2.675864454965139e-15 3.957103992950421e-15 0.8349709307926493 -0.550294052967372
59500000.0 0.8189130103193092 -0.5739176609320952 2.643500364530593e-15 3.869560876037462e-15 2.713475374179933e-15 3.9719904286384545e-15 0.8323973699167172 -0.554179229632194
60000000.0 0.8161377098580781 -0.5778574552150484 2.6802233298678407e-15 3.883694689018752e-15 2.7511704180114008e-15 3.986498371963367e-15 0.8298093914156928 -0.558046928060999
60500000.0 0.8133477476705709 -0.5817778281777414 2.717024071358562e-15 3.897459924419298e-15 2.7889452967768766e-15 4.0006279812421625e-15 0.8272071479205564 -0.5618970852648538
61000000.0 0.8105432977619057 -0.5856787194812995 2.753898427254937e-15 3.910856788748008e-15 2.826795738564627e-15 4.014379468450162e-15 0.824590792207565 -0.5657296398514933
61500000.0 0.8077245341716153 -0.5895600706435666 2.7908422538161345e-15 3.923885540297633e-15 2.864717489946561e-15 4.027753098717275e-15 0.8219604771792417 -0.5695445320212223
62000000.0 0.8048916309512966 -0.5934218250322123 2.8278514259906165e-15 3.936546488644852e-15 2.9027063166786038e-15 4.040749189814863e-15 0.8193163558455079 -0.5733417035625764
62500000.0 0.8020447621424681 -0.5972639278575527 2.8649218380863395e-15 3.948839994141471e-15 2.9407580043886246e-15 4.053368111633451e-15 0.8166585813049569 -0.5771210978477351
63000000.0 0.7991841017546314 -0.6010863261650884 2.9020494044287326e-15 3.9607664673969985e-15 2.978868359251846e-15 4.065610285651625e-15 0.813987306726275 -0.5808826598277013
63500000.0 0.79630982374355 -0.6048889688277644 2.9392300600063825e-15 3.972326368752916e-15 3.0170332086536107e-15 4.077476184396376e-15 0.811302685329811 -0.584626336027242
64000000.0 0.79342210198974 -0.6086718065379593 2.9764597611043267e-15 3.9835202077489e-15 3.055248401839441e-15 4.088966330895194e-15 0.8086048703692983 -0.5883520745395994
64500000.0 0.7905211102771806 -0.6124347917992035 3.0137344859248906e-15 3.9943485425813085e-15 3.093509810552314e-15 4.100081298120225e-15 0.8058940151137332 -0.5920598250209735
65000000.0 0.7876070222722484 -0.6161778789176402 3.051050235195996e-15 4.004811979554203e-15 3.131813329657067e-15 4.110821708424756e-15 0.8031702728294106 -0.5957495386847814
65500000.0 0.7846800115028741 -0.6199010239932254 3.0884030327668836e-15 4.0149111725232025e-15 3.170154877751889e-15 4.121188232972346e-15 0.8004337967621205 -0.5994211682956955
66000000.0 0.7817402513379292 -0.623604184910678 3.125788926191165e-15 4.024646822332428e-15 3.2085303977668137e-15 4.131181591158874e-15 0.7976847401195082 -0.6030746681634644
66500000.0 0.7787879149668434 -0.6272873213301836 3.1632039872972192e-15 4.034019676244873e-15 3.246935857549204e-15 4.140802550027825e-15 0.7949232560536015 -0.6067099941365233
67000000.0 0.7758231753794539 -0.6309503946778552 3.200644312745805e-15 4.043030527366426e-15 3.2853672504361352e-15 4.1500519236790675e-15 0.7921494976435052 -0.6103271035953937
67500000.0 0.7728462053460942 -0.6345933681359606 3.2381060245749274e-15 4.05168021406387e-15 3.3238205958136752e-15 4.1589305726714426e-15 0.7893636178782674 -0.6139259554458769
68000000.0 0.769857177397918 -0.638216206632917 3.2755852707318816e-15 4.059969619377107e-15 3.36229193966302e-15 4.167439403419442e-15 0.7865657696399189 -0.6175065101120488
68500000.0 0.7668562638074674 -0.641818876833061 3.3130782255924765e-15 4.067899670425929e-15 3.400777355093454e-15 4.1755793675842626e-15 0.7837561056866892 -0.6210687295290559
69000000.0 0.7638436365694807 -0.6454013471261979 3.350581090467392e-15 4.075471337811551e-15 3.4392729428621174e-15 4.183351461459503e-15 0.7809347786363973 -0.6246125771357162
69500000.0 0.7608194673819504 -0.6489635876169366 3.388090094095692e-15 4.08268563501326e-15 3.4777748318805778e-15 4.190756725351845e-15 0.7781019409500275 -0.6281380178669331
70000000.0 0.7577839276274236 -0.6525055701138158 3.4256014931254563e-15 4.089543617780372e-15 3.5162791797081895e-15 4.197796242956911e-15 0.7752577449154813 -0.6316450181459223
70500000.0 0.7547371883545555 -0.656027268118224 3.463111572581552e-15 4.096046383519847e-15 3.5547821730322395e-15 4.204471140730664e-15 0.7724023426315164 -0.6351335458762556
71000000.0 0.751679420259913 -0.6595286568131222 3.500616646320528e-15 4.102195070679764e-15 3.593280028134895e-15 4.2107825872565805e-15 0.7695358859918708 -0.6386035704337286
71500000.0 0.7486107936700297 -0.6630097130515724 3.5381130574726735e-15 4.107990858128981e-15 3.6317689913469504e-15 4.2167317926088654e-15 0.7666585266695739 -0.6420550626580542
72000000.0 0.7455314785237173 -0.6664704153450777 3.575597178871221e-15 4.113434964533201e-15 3.670245339488399e-15 4.2223200077120205e-15 0.7637704161014462 -0.645487994844384
72500000.0 0.7424416443546317 -0.6699107438517394 3.613065413468747e-15 4.118528647727739e-15 3.708705380295861e-15 4.227548523697003e-15 0.7608717054727892 -0.6489023407346665
73000000.0 0.7393414602740971 -0.6733306803642366 3.6505141947407735e-15 4.12327320408723e-15 3.747145452836853e-15 4.232418671254245e-15 0.757962545702269 -0.6522980755088399
73500000.0 0.7362310949541878 -0.6767302082976331 3.687939987076622e-15 4.127669967892557e-15 3.785561927911003e-15 4.2369318199838296e-15 0.755043087426991 -0.6556751757758696
74000000.0 0.7331107166110696 -0.6801093126770168 3.725339286157539e-15 4.131720310695224e-15 3.82395120843818e-15 4.241089377743037e-15 0.7521134809877713 -0.65903361956463
74500000.0 0.7299804929886029 -0.6834679801249771 3.76270861932215e-15 4.135425640679467e-15 3.862309729833619e-15 4.2448927899915715e-15 0.7491738764146031 -0.662373386314635
75000000.0 0.7268405913422067 -0.6868061988489265 3.800044545919281e-15 4.1387874020223175e-15 3.900633960370085e-15 4.2483435391346725e-15 0.7462244234123202 -0.6656944568666243
75500000.0 0.7236911784229844 -0.6901239586282687 3.8373436576482e-15 4.1418070742518805e-15 3.938920401527123e-15 4.2514431438644305e-15 0.7432652713464593 -0.6689968134530045
76000000.0 0.7205324204621135 -0.6934212508014216 3.874602578886335e-15 4.144486171604072e-15 3.9771655883274436e-15 4.254193158499472e-15 0.7402965692293203 -0.6722804396881541
76500000.0 0.7173644831555 -0.6966980682526991 3.911817967004539e-15 4.146826242378058e-15 4.015366089660541e-15 4.256595172323358e-15 0.7373184657062296 -0.6755453205585924
77000000.0 0.7141875316486946 -0.699954405399055 3.948986512669943e-15 4.1488288682906254e-15 4.0535185085935595e-15 4.258650808921848e-15 0.7343311090420012 -0.6787914424130171
77500000.0 0.7110017305220766 -0.7031902581766987 3.98610494013651e-15 4.150495663829729e-15 4.0916194826695346e-15 4.26036172551934e-15 0.7313346471076018 -0.6820187929522173
78000000.0 0.7078072437763004 -0.7064056240275814 4.023170007523305e-15 4.151828275607428e-15 4.12966568419304e-15 4.261729612314684e-15 0.7283292273670176 -0.6852273612188611
78500000.0 0.704604234818009 -0.7096005018857641 4.060178507080616e-15 4.152828381712464e-15 4.167653820503338e-15 4.262756191816617e-15 0.7253149968643249 -0.6884171375871642
79000000.0 0.7013928664458119 -0.7127748921636673 4.0971272654439694e-15 4.153497691062682e-15 4.205580634235133e-15 4.263443218179047e-15 0.7222921022109645 -0.6915881137524454
79500000.0 0.6981733008365303 -0.7159287967382119 4.134013143876155e-15 4.153837942757541e-15 4.2434429035669936e-15 4.263792476536417e-15 0.71926068957322 -0.6947402827205689
80000000.0 0.6949456995317054 -0.7190622189368517 4.1708330384973164e-15 4.1538509054308964e-15 4.28123744245754e-15 4.263805782339361e-15 0.716220904659901 -0.6978736387972777
80500000.0 0.6917102234243736 -0.7221751635235062 4.207583880503228e-15 4.1535383766042926e-15 4.3189611008694905e-15 4.263484980690877e-15 0.7131728927102311 -0.7009881775774263
81000000.0 0.6884670327461082 -0.725267636684396 4.244262636371858e-15 4.152902182040987e-15 4.356610764981702e-15 4.262831945683249e-15 0.7101167984819432 -0.7040838959341102
81500000.0 0.6852162870543225 -0.7283396460137868 4.280866308058288e-15 4.151944175100868e-15 4.394183357389243e-15 4.261848579735891e-15 0.7070527662395778 -0.7071607920077024
82000000.0 0.6819581452198408 -0.7313912004996467 4.317391933178115e-15 4.150666236096507e-15 4.431675837291654e-15 4.260536812934356e-15 0.7039809397429883 -0.7102188651947926
82500000.0 0.6786927654147322 -0.7344223105092212 4.353836585179457e-15 4.149070271650543e-15 4.469085200669502e-15 4.2588986023707054e-15 0.7009014622360533 -0.7132581161370422
83000000.0 0.6754203051004083 -0.7374329877745308 4.39019737350363e-15 4.147158214054562e-15 4.506408480449315e-15 4.256935931485419e-15 0.6978144764355924 -0.7162785467099513
83500000.0 0.6721409210159832 -0.7404232453777945 4.426471443734648e-15 4.1449320206297e-15 4.543642746657036e-15 4.254650809411075e-15 0.6947201245204909 -0.7192801600115448
84000000.0 0.6688547691668968 -0.7433930977367877 4.462655977737645e-15 4.142393673089124e-15 4.580785106560113e-15 4.252045270317954e-15 0.6916185481210271 -0.7222629603509808
84500000.0 0.6655620048137991 -0.7463425605901332 4.498748193786335e-15 4.13954517690261e-15 4.617832704798325e-15 4.249121372761796e-15 0.6885098883084083 -0.7252269532370835
85000000.0 0.6622627824616955 -0.7492716509825346 4.5347453466796385e-15 4.136388560663354e-15 4.65478272350351e-15 4.2458811990338545e-15 0.6853942855845103 -0.7281721453668073
85500000.0 0.6589572558493513 -0.752180387249955 4.570644727847606e-15 4.132925875457232e-15 4.6916323824082776e-15 4.242326854513453e-15 0.6822718798718219 -0.7310985446136317
86000000.0 0.6556455779389563 -0.7550687890047451 4.606443665446739e-15 4.129159194234649e-15 4.728378938943858e-15 4.2384604670232134e-15 0.6791428105035965 -0.7340061600158926
86500000.0 0.6523279009060451 -0.7579368771207221 4.642139524444853e-15 4.1250906111851626e-15 4.765019688327217e-15 4.2342841861871235e-15 0.6760072162142051 -0.7368950017650554
87000000.0 0.6490043761296769 -0.7607846737182137 4.677729706695642e-15 4.120722241115041e-15 4.801551963637586e-15 4.229800182791616e-15 0.6728652351296956 -0.7397650811939284
87500000.0 0.6456751541828679 -0.7636122021490552 4.7132116510029984e-15 4.116056218827905e-15 4.837973135882489e-15 4.2250106481498185e-15 0.6697170047585549 -0.7426164107648242
88000000.0 0.6423403848232803 -0.7664194869815618 4.748582833175314e-15 4.1110946985086185e-15 4.8742806140534835e-15 4.2199177934691394e-15 0.6665626619826728 -0.7454490040576707
88500000.0 0.6390002169841623 -0.7692065539854647 4.783840766069841e-15 4.105839853110585e-15 4.91047184517169e-15 4.214523849222337e-15 0.6634023430485105 -0.7482628757580763
89000000.0 0.6356547987655418 -0.7719734301168263 4.818982999627264e-15 4.1002938737465784e-15 4.9465443143232805e-15 4.208831064522224e-15 0.6602361835584691 -0.7510580416453494
89500000.0 0.6323042774256677 -0.7747201435029323 4.854007120896627e-15 4.094458969083256e-15 4.982495544685068e-15 4.2028417065001665e-15 0.6570643184624589 -0.7538345185804801
90000000.0 0.6289487993727035 -0.777446723427165 4.8889107540507564e-15 4.088337364739517e-15 5.018323097540335e-15 4.196558059688503e-15 0.6538868820496702 -0.7565923244940834
90500000.0 0.6255885101566622 -0.7801532003138664 4.923691560392323e-15 4.081931302688797e-15 5.054024572285061e-15 4.189982425407029e-15 0.650704007940542 -0.7593314783743099
91000000.0 0.6222235544615946 -0.7828396057131876 4.95834723835068e-15 4.075243040665489e-15 5.089597606424669e-15 4.183117121153693e-15 0.6475158290789309 -0.7620520002547233
91500000.0 0.6188540760980138 -0.785505972285936 4.992875523469636e-15 4.068274851575543e-15 5.125039875561479e-15 4.175964479999602e-15 0.6443224777244752 -0.7647539112021545
92000000.0 0.6154802179955681 -0.7881523337884169 5.027274188386284e-15 4.061029022911444e-15 5.16034909337298e-15 4.168526849988511e-15 0.6411240854451593 -0.7674372333045275
92500000.0 0.6121021221959491 -0.790778725057279 5.061541042801077e-15 4.053507856171622e-15 5.195523011581106e-15 4.160806593540871e-15 0.6379207831100696 -0.7701019896586655
93000000.0 0.6087199298460432 -0.7933851819943629 5.095673933439241e-15 4.04571366628447e-15 5.230559419912633e-15 4.152806086862589e-15 0.6347127008823485 -0.7727482043580782
93500000.0 0.6053337811913164 -0.79597174155156 5.1296707440037376e-15 4.0376487810370175e-15 5.265456146050895e-15 4.144527719358586e-15 0.6314999682123397 -0.7753759024807348
94000000.0 0.6019438155694367 -0.798538441715681 5.163529395119866e-15 4.029315540508423e-15 5.3002110555789206e-15 4.135973893051293e-15 0.6282827138309268 -0.7779851100768226
94500000.0 0.5985501714041266 -0.8010853214933417 5.197247844271703e-15 4.020716296508355e-15 5.3348220519141905e-15 4.1271470220041656e-15 0.6250610657430644 -0.7805758541564968
95000000.0 0.5951529861992502 -0.8036124208958663 5.230824085730511e-15 4.011853412020379e-15 5.369287076235144e-15 4.11804953175033e-15 0.6218351512214967 -0.7831481626776242
95500000.0 0.5917523965331261 -0.8061197809242135 5.264256150475253e-15 4.002729260650424e-15 5.4036041073995955e-15 4.108683858726465e-15 0.6186050968006673 -0.7857020645335209
96000000.0 0.5883485380530694 -0.8086074435539262 5.297542106105393e-15 3.99334622608045e-15 5.4377711618552405e-15 4.099052449711991e-15 0.6153710282708154 -0.7882375895406913
96500000.0 0.5849415454701581 -0.8110754517201115 5.330680056746125e-15 3.983706701527386e-15 5.471786293542347e-15 4.089157761273701e-15 0.612133070672259 -0.7907547684265654
97000000.0 0.5815315525542217 -0.8135238493024505 5.363668142946186e-15 3.973813089207433e-15 5.50564759378888e-15 4.0790022592158665e-15 0.6088913482898624 -0.793253632817243
97500000.0 0.5781186921290519 -0.8159526811102432 5.396504541568368e-15 3.963667799805783e-15 5.53935319119812e-15 4.068588418035937e-15 0.6056459846476878 -0.7957342152252427
98000000.0 0.5747030960678302 -0.8183619928674902 5.429187465672958e-15 3.953273251951893e-15 5.572901251529006e-15 4.057918720385913e-15 0.602397102503829 -0.7981965490372601
98500000.0 0.5712848952887727 -0.8207518311980158 5.4617151643941895e-15 3.942631871700311e-15 5.606289977569329e-15 4.0469956565394365e-15 0.5991448238454257 -0.8006406685019403
99000000.0 0.567864219750989 -0.8231222436106319 5.494085922809887e-15 3.9317460920171985e-15 5.6395176090019145e-15 4.035821723864712e-15 0.5958892698838577 -0.8030666087176597
99500000.0 0.5644411984505527 -0.8254732784843515 5.526298061804477e-15 3.920618352272557e-15 5.672582422264007e-15 4.024399426303301e-15 0.592630561050116 -0.8054744056203305
100000000.0 0.5610159594167812 -0.8278049850536469 5.558349937925449e-15 3.9092510977382506e-15 5.705482730399945e-15 4.012731273854851e-15 0.5893688169903517 -0.807864095971218
100500000.0 0.5575886297087232 -0.8301174133937611 5.590239943233509e-15 3.897646779091877e-15 5.738216882907337e-15 4.000819782067839e-15 0.5861041565615974 -0.8102357173447851
101000000.0 0.5541593354118505 -0.8324106144060733 5.621966505146521e-15 3.8858078519265564e-15 5.770783265576869e-15 3.988667471536376e-15 0.5828366978276642 -0.8125893081165566
101500000.0 0.550728201634953 -0.8346846398035194 5.6535280862773746e-15 3.87373677626666e-15 5.803180300325894e-15 3.9762768674031304e-15 0.5795665580552092 -0.8149249074510105
102000000.0 0.547295352507232 -0.8369395420960731 5.684923184266002e-15 3.861436016089564e-15 5.835406445025983e-15 3.9636504988684046e-15 0.5762938537099725 -0.8172425552894984
102500000.0 0.5438609111755957 -0.8391753745762868 5.7161503316056005e-15 3.84890803885345e-15 5.8674601933245715e-15 3.950790898705453e-15 0.5730187004531848 -0.8195422923381949
103000000.0 0.5404249998021419 -0.8413921913048962 5.7472080954632926e-15 3.8361553150311936e-15 5.899340074460851e-15 3.93770060278202e-15 0.569741213138138 -0.8218241600560809
103500000.0 0.5369877395618441 -0.8435900470964917 5.778095077495317e-15 3.823180317650416e-15 5.9310446530760765e-15 3.924382149588222e-15 0.5664615058069249 -0.82408820064296
104000000.0 0.5335492506404177 -0.8457689975052579 5.80880991365694e-15 3.809985521839678e-15 5.962572529018447e-15 3.9108380797707284e-15 0.5631796916873393 -0.8263344570275123
104500000.0 0.5301096522323819 -0.8479290988107808 5.839351274007183e-15 3.796573404380902e-15 5.9939223371426675e-15 3.897070935673338e-15 0.5598958831899395 -0.8285629728553875
105000000.0 0.5266690625393026 -0.8500704080039323 5.86971786250859e-15 3.782946443268025e-15 6.025092747104406e-15 3.883083260883943e-15 0.5566101919052713 -0.8307737924773367
105500000.0 0.5232275987682199 -0.852192982772824 5.899908416822097e-15 3.769107117271915e-15 6.056082463149741e-15 3.868877599787937e-15 0.5533227286012475 -0.8329669609373892
106000000.0 0.5197853771302559 -0.8542968814888402 5.9299217080972e-15 3.755057905511579e-15 6.086890223899772e-15 3.854456497128061e-15 0.5500336032206873 -0.8351425239610708
106500000.0 0.5163425128394002 -0.85638216319275 5.959756540757566e-15 3.740801287031678e-15 6.11751480213056e-15 3.8398224975707514e-15 0.5467429248790068 -0.8373005279436702
107000000.0 0.5128991201114719 -0.8584488875808962 5.989411752282196e-15 3.72633974038638e-15 6.147955004548489e-15 3.824978145278961e-15 0.543450801862065 -0.8394410199385534
107500000.0 0.5094553121632519 -0.8604971149914702 6.01888621298232e-15 3.711675743229551e-15 6.178209671561264e-15 3.80992598349151e-15 0.5401573416241585 -0.8415640476455267
108000000.0 0.5060112012117892 -0.8625269063908687 6.0481788257741374e-15 3.696811771911304e-15 6.208277677044629e-15 3.7946685541089564e-15 0.5368626507861681 -0.8436696593992514
108500000.0 0.5025668984738721 -0.8645383233601347 6.077288525947553e-15 3.681750301080931e-15 6.238157928104988e-15 3.7792083972860144e-15 0.5335668351338508 -0.8457579041577123
109000000.0 0.4991225141656657 -0.8665314280814891 6.106214280931058e-15 3.666493803296189e-15 6.267849364838057e-15 3.7635480510305e-15 0.5302699996162775 -0.8478288314907396
109500000.0 0.49567815750251343 -0.8685062833249473 6.1349550900528654e-15 3.651044748638999e-15 6.297350960083677e-15 3.7476900508088545e-15 0.5269722483444157 -0.8498824915685884
110000000.0 0.49223393669889526 -0.870462952435029 6.163509984298459e-15 3.635405604337495e-15 6.3266617191769465e-15 3.731636929158194e-15 0.5236736845898525 -0.8519189351505736
110500000.0 0.488789958968549 -0.8724014993175585 6.191878026064695e-15 3.619578834394504e-15 6.355780679695821e-15 3.715391215304949e-15 0.5203744107836604 -0.8539382135737681
111000000.0 0.485346330524741 -0.8743219884265572 6.220058308910557e-15 3.603566899222365e-15 6.384706911205249e-15 3.698955434790015e-15 0.5170745285153965 -0.8559403787417558
111500000.0 0.48190315658069394 -0.8762244847512326 6.248049957304729e-15 3.58737225528415e-15 6.4134395149980906e-15 3.6823321091004955e-15 0.513774138532243 -0.857925483113453
112000000.0 0.47846054135016136 -0.878109053803063 6.275852126370115e-15 3.570997354741271e-15 6.441977623832854e-15 3.665523755307951e-15 0.5104733407382789 -0.8598935796919879
112500000.0 0.47501858804815267 -0.8799757616029772 6.303464001625395e-15 3.554444645107426e-15 6.4703204016684184e-15 3.648532885713208e-15 0.5071722341938861 -0.8618447220136479
113000000.0 0.47157739889180056 -0.8818246746686348 6.330884798723799e-15 3.5377165689089044e-15 6.4984670433959e-15 3.63136200749767e-15 0.5038709171152851 -0.8637789641368917
113500000.0 0.46813707510137226 -0.8836558600018065 6.358113763189209e-15 3.5208155633512565e-15 6.526416774567746e-15 3.6140136223811426e-15 0.5005694868741988 -0.8656963606314292
114000000.0 0.46469771690142087 -0.8854693850758517 6.38515017014966e-15 3.5037440599922515e-15 6.554168851124208e-15 3.596490226286162e-15 0.4972680399976457 -0.8675969665673687
114500000.0 0.4612594235220724 -0.8872653178233021 6.411993324068456e-15 3.4865044844211612e-15 6.581722559117328e-15 3.5787943090087804e-15 0.4939666721678551 -0.8694808375044356
115000000.0 0.45782229320045104 -0.8890437266235447 6.438642558472948e-15 3.4690992559443478e-15 6.609077214432527e-15 3.560928353895816e-15 0.49066547822230816 -0.8713480294812593
115500000.0 0.4543864231822322 -0.8908046802906107 6.465097235681123e-15 3.4515307872770795e-15 6.636232162507976e-15 3.5428948375285313e-15 0.4873645521538973 -0.8731985990047345
116000000.0 0.4509519097233303 -0.8925482480610677 6.491356746526118e-15 3.4338014842416282e-15 6.663186778051812e-15 3.524696229412731e-15 0.4840639871112078 -0.8750326030394528
116500000.0 0.44751884809171005 -0.8942744995820182 6.5174205100787836e-15 3.415913745471564e-15 6.689940464757339e-15 3.5063349916752213e-15 0.4807638753989147 -0.8768500989972098
117000000.0 0.44408733256932453 -0.895983504899204 6.543287973368394e-15 3.397869962122241e-15 6.716492655016382e-15 3.4878135787666534e-15 0.47746430847829613 -0.8786511447265873
117500000.0 0.4406574564541768 -0.8976753344452186 6.56895861110164e-15 3.3796725175874704e-15 6.742842809630803e-15 3.4691344371706695e-15 0.47416537696786065 -0.8804357985026089
118000000.0 0.4372293120624986 -0.8993500590278259 6.5944319253799886e-15 3.3613237872222954e-15 6.768990417522401e-15 3.4503000051193563e-15 0.47086717064408506 -0.8822041190164747
118500000.0 0.43380299073104894 -0.9010077498183894 6.61970744541554e-15 3.342826138071882e-15 6.794934995441246e-15 3.4313127123149625e-15 0.46756977844226366 -0.8839561653653719
119000000.0 0.43037858281952723 -0.9026484783404086 6.644784727245491e-15 3.3241819286064894e-15 6.820676087672579e-15 3.4121749796578374e-15 0.46427328845746424 -0.8856919970423646
119500000.0 0.42695617771309924 -0.9042723164581676 6.669663353445303e-15 3.305393508462455e-15 6.846213265742385e-15 3.3928892189805787e-15 0.46097778794559185 -0.8874116739263626
120000000.0 0.42353586382503333 -0.9058793363654911 6.694342932840661e-15 3.286463218189186e-15 6.871546128121739e-15 3.3734578327883127e-15 0.45768336332455406 -0.8891152562721687
120500000.0 0.4201177285994435 -0.9074696105746153 6.718823100218382e-15 3.267393389002113e-15 6.896674299930049e-15 3.3538832140051097e-15 0.4543901001755318 -0.8908028047006082
121000000.0 0.4167018585141416 -0.9090432119051658 6.7431035160363065e-15 3.248186342541562e-15 6.921597432637268e-15 3.334167745726485e-15 0.4510980832443493 -0.892474380188739
121500000.0 0.41328833908358703 -0.9106002134732508 6.767183866132317e-15 3.228844390637498e-15 6.946315203765232e-15 3.3143138009779025e-15 0.44780739644294176 -0.8941300440601434
122000000.0 0.4098772548619441 -0.9121406886806646 6.791063861432578e-15 3.2093698350801273e-15 6.970827316588145e-15 3.2943237424793074e-15 0.444518122850922 -0.895769857975302
122500000.0 0.4064686894462313 -0.9136647112042049 6.814743237659065e-15 3.1897649673962726e-15 6.995133499832392e-15 3.2741999224155842e-15 0.4412303447172407 -0.8973938839220517
123000000.0 0.403062725479573 -0.9151723549851024 6.838221755036519e-15 3.1700320686315164e-15 7.019233507375723e-15 3.253944682212939e-15 0.4379441434619401 -0.8990021842061272
123500000.0 0.39965944465453995 -0.9166636942185638 6.861499197998873e-15 3.150173409138049e-15 7.043127117945903e-15 3.233560352321116e-15 0.43465959967800033 -0.9005948214417849
124000000.0 0.3962589277165852 -0.918138803343428 6.8845753748952886e-15 3.1301912483681673e-15 7.066814134818987e-15 3.213049252001442e-15 0.4313767931332723 -0.9021718585425139
124500000.0 0.39286125446756753 -0.9195977570319368 6.907450117695843e-15 3.1100878346733974e-15 7.090294385517204e-15 3.1924136891206353e-15 0.42809580277250375 -0.9037333587118302
125000000.0 0.3894665037693619 -0.9210406301796189 6.930123281697003e-15 3.0898654051091755e-15 7.113567721506629e-15 3.1716559599502997e-15 0.42481670671944405 -0.9052793854341573
125500000.0 0.38607475354755794 -0.9224674978952877 6.9525947452269336e-15 3.0695261852450497e-15 7.136634017894706e-15 3.150778348972125e-15 0.42153958227904076 -0.9068100024657934
126000000.0 0.38268608079523597 -0.9238784354911538 6.974864409350734e-15 3.0490723889803437e-15 7.159493173127666e-15 3.129783128688647e-15 0.41826450593971287 -0.9083252738259615
126500000.0 0.3793005615768299 -0.9252735184730522 6.996932197575711e-15 3.0285062183652367e-15 7.182145108688009e-15 3.1086725594396106e-15 0.4149915533757086 -0.9098252637879518
127000000.0 0.37591827103206366 -0.9266528225307814 7.018798055556715e-15 3.00782986342721e-15 7.204589768792038e-15 3.087448889223812e-15 0.41172079944954 -0.9113100368703462
127500000.0 0.37253928337996556 -0.9280164235285611 7.04046195080168e-15 2.9870455020027904e-15 7.226827120087607e-15 3.0661143535263933e-15 0.4084523182144952 -0.9127796578283308
128000000.0 0.36916367192295857 -0.9293643974955991 7.061923872377396e-15 2.966155299574571e-15 7.248857151352093e-15 3.0446711751515465e-15 0.4051861829172278 -0.9142341916450988
128500000.0 0.36579150905102087 -0.9306968206167767 7.083183830615608e-15 2.9451614091134186e-15 7.270679873190729e-15 3.0231215640605395e-15 0.40192246600041676 -0.9156737035233368
129000000.0 0.36242286624591663 -0.9320137692234457 7.104241856819528e-15 2.9240659709258385e-15 7.292295317735338e-15 3.001467717215051e-15 0.39866123910550333 -0.9170982588768035
129500000.0 0.35905781408549636 -0.9333153197843402 7.125098002970796e-15 2.902871112506426e-15 7.313703538343554e-15 2.9797118184257138e-15 0.395402573075493 -0.9185079233219926
130000000.0 0.355696422248061 -0.9346015488966029 7.145752341437004e-15 2.881578948395363e-15 7.334904609298574e-15 2.9578560382058284e-15 0.39214653795783033 -0.9199027626698856
130500000.0 0.3523387595167923 -0.9358725332769244 7.166204964679824e-15 2.8601915800408888e-15 7.355898625509581e-15 2.935902533630205e-15 0.38889320300733937 -0.9212828429177936
131000000.0 0.348984893784244 -0.9371283497527966 7.186455984963798e-15 2.8387110956666972e-15 7.37668570221284e-15 2.9138534481990506e-15 0.38564263668922943 -0.9226482302412871
131500000.0 0.34563489205689346 -0.9383690752538789 7.206505534065887e-15 2.817139570144202e-15 7.397265974673514e-15 2.8917109117068434e-15 0.3823949066821653 -0.9239989909862123
132000000.0 0.3422888204597505 -0.9395947868034777 7.226353762985829e-15 2.795479064869612e-15 7.417639597888393e-15 2.8694770401161594e-15 0.3791500798813988 -0.9253351916607996
132500000.0 0.3389467442410253 -0.9408055615101396 7.246000841657341e-15 2.7737316276457495e-15 7.437806746289447e-15 2.847153935436372e-15 0.3759082224019633 -0.9266568989278589
133000000.0 0.33560872777684636 -0.9420014765593558 7.265446958660277e-15 2.7518992925685727e-15 7.457767613448345e-15 2.824743685607152e-15 0.37266939958192363 -0.927964179597062
133500000.0 0.3322748345760355 -0.9431826092053798 7.28469232093375e-15 2.7299840799183193e-15 7.477522411781997e-15 2.8022483643867463e-15 0.36943367598568705 -0.9292571006173169
134000000.0 0.3289451272849294 -0.9443490367631563 7.303737153490308e-15 2.707987996055232e-15 7.497071372259171e-15 2.779670031244929e-15 0.36620111540736777 -0.930535729069228
134500000.0 0.3256196676922538 -0.9455008366003629 7.322581699131213e-15 2.6859130333198037e-15 7.516414744108215e-15 2.757010731260621e-15 0.36297178087420834 -0.9318001321576455
135000000.0 0.32229851673404125 -0.9466380861295605 7.341226218162862e-15 2.663761169937457e-15 7.535552794525993e-15 2.734272495024037e-15 0.35974573465005094 -0.9330503772043047
135500000.0 0.31898173449859607 -0.9477608628004572 7.359670988114413e-15 2.6415343699276423e-15 7.55448580838803e-15 2.7114573385433744e-15 0.3565230382388621 -0.9342865316405512
136000000.0 0.31566938023150326 -0.9488692440922819 7.377916303456702e-15 2.6192345830172594e-15 7.57321408795997e-15 2.688567263155952e-15 0.35330375238830697 -0.9355086630001572
136500000.0 0.31236151234067744 -0.9499633075062662 7.395962475322408e-15 2.596863744558353e-15 7.591737952610354e-15 2.6656042554437206e-15 0.35008793709337205 -0.9367168389122228
137000000.0 0.30905818840145294 -0.9510431305582371 7.413809831227605e-15 2.5744237754500245e-15 7.610057738524807e-15 2.642570287153114e-15 0.3468756516000345 -0.9379111270941675
137500000.0 0.305759465161712 -0.9521087907713193 7.431458714794729e-15 2.5519165820645007e-15 7.62817379842165e-15 2.6194673151191496e-15 0.3436669544089769 -0.9390915953448089
138000000.0 0.3024653985470507 -0.9531603656687437 7.448909485476954e-15 2.5293440561772963e-15 7.64608650126899e-15 2.5962972811937545e-15 0.3404619032793478 -0.9402583115375285
138500000.0 0.29917604366597816 -0.9541979327667676 7.466162518284087e-15 2.5067080749014e-15 7.663796232003371e-15 2.5730621121782012e-15 0.3372605552325616 -0.941411343613526
139000000.0 0.29589145481515017 -0.9552215695676968 7.483218203509967e-15 2.4840105006254395e-15 7.681303391249935e-15 2.5497637197596415e-15 0.3340629665561431 -0.9425507595751589
139500000.0 0.29261168548463534 -0.9562313535530201 7.50007694646146e-15 2.461253180955764e-15 7.698608395044263e-15 2.5264040004516507e-15 0.33086919280761046 -0.9436766274793713
140000000.0 0.2893367883632104 -0.9572273621766475 7.516739167189054e-15 2.4384379486623706e-15 7.715711674555825e-15 2.502984835538728e-15 0.3276792888183966 -0.9447890154312072
140500000.0 0.28606681534368544 -0.9582096728582538 7.5332053002191e-15 2.4155666216286224e-15 7.732613675813135e-15 2.4795080910246746e-15 0.32449330869780807 -0.9458879915774114
141000000.0 0.28280181752825573 -0.9591783629767276 7.549475794287736e-15 2.3926410028046975e-15 7.749314859430646e-15 2.4559756175848212e-15 0.3213113058370197 -0.9469736241001168
141500000.0 0.27954184523387915 -0.960133509863726 7.565551112076538e-15 2.3696628801647104e-15 7.765815700337388e-15 2.4323892505220116e-15 0.3181333329131047 -0.948045981210616
142000000.0 0.27628694799767833 -0.9610751907973322 7.58143172994993e-15 2.34663402666744e-15 7.782116687507425e-15 2.4087508097262832e-15 0.31495944189309627 -0.9491051311432201
142500000.0 0.273037174582366 -0.9620034829958146 7.597118137694354e-15 2.3235562002206118e-15 7.798218323692145e-15 2.3850620996382155e-15 0.3117896840380826 -0.9501511421492017
143000000.0 0.26979257298169185 -0.962918463611493 7.612610838259301e-15 2.300431143648671e-15 7.814121125154401e-15 2.361324909215842e-15 0.3086241099073327 -0.9511840824908219
143500000.0 0.2665531904259075 -0.9638202097247026 7.627910347500144e-15 2.2772605846639773e-15 7.82982562140456e-15 2.3375410119050836e-15 0.3054627693624502 -0.9522040204354434
144000000.0 0.263319073387254 -0.9647087983378602 7.643017193922884e-15 2.2540462358413875e-15 7.845332354938489e-15 2.3137121656136603e-15 0.3023057115715579 -0.9532110242497273
144500000.0 0.26009026758546167 -0.9655843063696318 7.657931918430767e-15 2.2307897945961254e-15 7.860641880977465e-15 2.2898401126883754e-15 0.2991529850135057 -0.9542051621939117
145000000.0 0.2568668179932715 -0.9664468106492006 7.672655074072866e-15 2.20749294316494e-15 7.87575476721009e-15 2.265926579895777e-15 0.29600463748210964 -0.9551865025161762
145500000.0 0.25364876884196613 -0.9672963879106314 7.687187225794592e-15 2.184157348590425e-15 7.890671593536212e-15 2.2419732784060523e-15 0.2928607160904102 -0.956155113447087
146000000.0 0.25043616362691823 -0.9681331147873372 7.701528950190195e-15 2.1607846627084856e-15 7.905392951812877e-15 2.217981903780181e-15 0.28972126727495734 -0.9571110631941273
146500000.0 0.24722904511314803 -0.9689570678066397 7.715680835257266e-15 2.137376522138896e-15 7.919919445602315e-15 2.1939541359602213e-15 0.2865863368001171 -0.9580544199363052
147000000.0 0.24402745534089415 -0.9697683233844299 7.729643480153262e-15 2.113934548278863e-15 7.934251689922023e-15 2.1698916392627144e-15 0.2834559697623989 -0.9589852518188472
147500000.0 0.24083143563119266 -0.9705669578199222 7.743417494954069e-15 2.090460347299549e-15 7.94839031099697e-15 2.1457960623751255e-15 0.28033021059480534 -0.9599036269479725
148000000.0 0.237641026591465 -0.9713530472905074 7.757003500414646e-15 2.066955510145517e-15 7.962335946013857e-15 2.12166903835525e-15 0.27720910307119645 -0.9608096133857439
148500000.0 0.23445626812111417 -0.9721266678466959 7.770402127731731e-15 2.043421612537015e-15 7.976089242877569e-15 2.0975121846335816e-15 0.2740926903106776 -0.9617032791450046
149000000.0 0.23127719941712468 -0.9728878954071594 7.78361401830866e-15 2.0198602149750444e-15 7.989650859969771e-15 2.073327103018502e-15 0.27098101478199904 -0.9625846921843907
149500000.0 0.22810385897967098 -0.9736368057538614 7.796639823522284e-15 1.99627286274918e-15 8.003021465909639e-15 2.0491153797043062e-15 0.26787411830797475 -0.9634539204034228
150000000.0 0.22493628461772758 -0.9743734745272846 7.809480204492057e-15 1.9726610859480706e-15 8.016201739316847e-15 2.0248785852819895e-15 0.2647720420699156 -0.9643110316376802
150500000.0 0.22177451345468144 -0.9750979772217453 7.822135831851206e-15 1.9490263994725426e-15 8.029192368576679e-15 2.0006182747526977e-15 0.2616748266120743 -0.9651560936540476
151000000.0 0.21861858193394923 -0.9758103891808025 7.834607385520124e-15 1.925370303051306e-15 8.04199405160742e-15 1.97633598754384e-15 0.2585825118461065 -0.9659891741460451
151500000.0 0.2154685258245915 -0.976510785592754 7.846895554481888e-15 1.901694281259152e-15 8.054607495629938e-15 1.952033247527776e-15 0.25549513705554017 -0.9668103407292307
152000000.0 0.2123243802269306 -0.9771992414862232 7.859001036559974e-15 1.877999803537629e-15 8.067033416939502e-15 1.9277115630430373e-15 0.2524127409002591 -0.9676196609366816
152500000.0 0.20918617957816332 -0.9778758317258344 7.87092453819818e-15 1.854288324218115e-15 8.079272540679897e-15 1.9033724269180056e-15 0.24933536142099388 -0.9684172022145529
153000000.0 0.20605395765797516 -0.9785406310079748 7.882666774242729e-15 1.8305612825472556e-15 8.09132560061974e-15 1.8790173164970348e-15 0.24626303604382363 -0.9692030319177083
153500000.0 0.20292774759414806 -0.9791937138566433 7.894228467726575e-15 1.8068201027146984e-15 8.103193338931102e-15 1.854647693668912e-15 0.2431958015846848 -0.9699772173054285
154000000.0 0.19980758186816713 -0.9798351546193856 7.905610349655971e-15 1.783066193883086e-15 8.114876505970396e-15 1.830265004897639e-15 0.2401336942538871 -0.9707398255371934
154500000.0 0.19669349232081923 -0.9804650274633153 7.916813158799214e-15 1.7593009502202376e-15 8.126375860061544e-15 1.8058706812554782e-15 0.2370767496606373 -0.971490923668537
155000000.0 0.19358551015778883 -0.9810834063712159 7.927837641477644e-15 1.735525750933486e-15 8.137692167281463e-15 1.7814661384581955e-15 0.2340250028175658 -0.9722305786469783
155500000.0 0.19048366595524371 -0.9816903651377307 7.938684551358881e-15 1.7117419603061139e-15 8.148826201247794e-15 1.7570527769024532e-15 0.2309784881452609 -0.9729588573080208
156000000.0 0.18738798966541675 -0.9822859773656314 7.949354649252301e-15 1.6879509277358374e-15 8.159778742908982e-15 1.732631981705315e-15 0.22793723947680455 -0.9736758263712281
156500000.0 0.1842985106221752 -0.982870316462171 7.959848702906752e-15 1.6641539877752775e-15 8.170550580336637e-15 1.7082051227457975e-15 0.22490129006231221 -0.9743815524363686
157000000.0 0.1812152575465848 -0.9834434556355158 7.970167486810515e-15 1.6403524601743898e-15 8.181142508520205e-15 1.6837735547084172e-15 0.2218706725734736 -0.9750761019796323
157500000.0 0.17813825855245954 -0.9840054678912599 7.98031178199354e-15 1.6165476499247936e-15 8.191555329163956e-15 1.6593386171286837e-15 0.21884541910809716 -0.9757595413499174
158000000.0 0.17506754115190457 -0.9845564260290144 7.990282375831896e-15 1.5927408473059532e-15 8.20178985048627e-15 1.6349016344405232e-15 0.21582556119465277 -0.9764319367651867
158500000.0 0.17200313226084452 -0.985096402639081 8.000080061854502e-15 1.5689333279331559e-15 8.211846887021238e-15 1.6104639160255042e-15 0.21281112979681488 -0.9770933543088925
159000000.0 0.16894505820454067 -0.9856254700991977 8.009705639552107e-15 1.5451263528072544e-15 8.221727259422601e-15 1.5860267562639171e-15 0.2098021553180062 -0.9777438599264734
159500000.0 0.16589334472309467 -0.9861437005713644 8.019159914188501e-15 1.5213211683661241e-15 8.231431794269958e-15 1.5615914345875797e-15 0.20679866760593815 -0.978383519421913
160000000.0 0.16284801697693932 -0.9866511659987426 8.028443696614008e-15 1.4975190065377687e-15 8.240961323877321e-15 1.5371592155343569e-15 0.2038006959571487 -0.9790123984543718
160500000.0 0.1598090995523134 -0.9871479381026325 8.037557803081213e-15 1.4737210847950701e-15 8.25031668610395e-15 1.5127313488043503e-15 0.20080826912153937 -0.9796305625348831
161000000.0 0.15677661646672178 -0.9876340883795204 8.046503055062917e-15 1.4499286062120818e-15 8.259498724167523e-15 1.4883090693176952e-15 0.19782141530690586 -0.980238077023114
161500000.0 0.15375059117438122 -0.9881096880982032 8.055280279072383e-15 1.4261427595218884e-15 8.268508286459593e-15 1.4638935972739375e-15 0.1948401621834663 -0.9808350071241954
162000000.0 0.15073104657164643 -0.9885748082969829 8.063890306485769e-15 1.4023647191759138e-15 8.277346226363332e-15 1.4394861382129225e-15 0.19186453688838265 -0.9814214178856127
162500000.0 0.14771800500242316 -0.9890295197809335 8.072333973366828e-15 1.3785956454047075e-15 8.2860134020736e-15 1.4150878830771851e-15 0.18889456603027877 -0.9819973741941639
163000000.0 0.1447114882635593 -0.9894738931192404 8.080612120293851e-15 1.3548366842801036e-15 8.294510676419274e-15 1.3907000082757523e-15 0.18593027569374956 -0.9825629407729797
163500000.0 0.14171151761022208 -0.989907998642605 8.088725592188776e-15 1.3310889677787593e-15 8.302838916687892e-15 1.3663236757493731e-15 0.18297169144386535 -0.983118182178608
164000000.0 0.13871811376125176 -0.9903319064407247 8.096675238148607e-15 1.3073536138469898e-15 8.31099899445254e-15 1.341960033037058e-15 0.1800188383306665 -0.983663162798159
164500000.0 0.1357312969045003 -0.9907456863598362 8.104461911278962e-15 1.2836317264669068e-15 8.318991785401051e-15 1.3176102133439708e-15 0.17707174089365343 -0.9841979468465125
165000000.0 0.13275108670214694 -0.9911494080003272 8.112086468529875e-15 1.2599243957237591e-15 8.326818169167432e-15 1.293275335610564e-15 0.1741304231662634 -0.984722598363589
165500000.0 0.1297775022959948 -0.9915431407144185 8.11954977053379e-15 1.236232697874495e-15 8.334479029165569e-15 1.2689565045829364e-15 0.17119490868034076 -0.9852371812116764
166000000.0 0.1268105623127458 -0.9919269536039057 8.126852681445742e-15 1.2125576954174683e-15 8.341975252425189e-15 1.2446548108844022e-15 0.16826522047059866 -0.9857417590728217
166500000.0 0.12385028486925533 -0.9923009155179714 8.133996068785718e-15 1.188900437163274e-15 8.349307729430047e-15 1.2203713310881834e-15 0.1653413810790668 -0.986236395446278
167000000.0 0.1208966875777626 -0.9926650950510574 8.140980803283186e-15 1.1652619583066398e-15 8.35647735395833e-15 1.196107127791227e-15 0.1624234125595313 -0.9867211536460117
167500000.0 0.11794978755110135 -0.9930195605408033 8.147807758723838e-15 1.1416432804993848e-15 8.363485022925352e-15 1.1718632496890745e-15 0.15951133648196122 -0.9871960967982696
168000000.0 0.11500960140788574 -0.9933643800660458 8.154477811798408e-15 1.1180454119243713e-15 8.370331636228366e-15 1.147640731651781e-15 0.15660517393692547 -0.9876612878391992
168500000.0 0.11207614527767389 -0.99369962144488 8.160991841953712e-15 1.0944693473704254e-15 8.377018096593661e-15 1.1234405948008186e-15 0.15370494553999509 -0.9881167895125289
169000000.0 0.10914943480610621 -0.9940253522327827 8.16735073124577e-15 1.0709160683081838e-15 8.383545309425804e-15 1.099263846586929e-15 0.15081067143613344 -0.9885626643673038
169500000.0 0.10622948516002331 -0.9943416397207935 8.173555364195101e-15 1.0473865429668533e-15 8.389914182659091e-15 1.0751114808689172e-15 0.14792237130407393 -0.9889989747556768
170000000.0 0.10331631103255358 -0.9946485509337579 8.179606627644095e-15 1.0238817264118195e-15 8.396125626611143e-15 1.050984477993308e-15 0.1450400643606835 -0.989425782830753
170500000.0 0.10040992664818256 -0.9949461526286267 8.185505410616496e-15 1.000402560623083e-15 8.402180553838698e-15 1.0268838048748712e-15 0.1421637693653112 -0.9898431505444925
171000000.0 0.09751034576778989 -0.9952345112928139 8.191252604178987e-15 9.769499745744944e-16 8.40807987899549e-15 1.0028104150779357e-15 0.13929350462412263 -0.9902511396456606
171500000.0 0.09461758169366827 -0.9955136931426116 8.196849101304856e-15 9.535248843137526e-16 8.413824518692337e-15 9.787652488985285e-16 0.1364292879944211 -0.9906498116778376
172000000.0 0.09173164727450896 -0.9957837641216615 8.20229579673972e-15 9.301281930431182e-16 8.419415391359302e-15 9.547492334472002e-16 0.13357113688894953 -0.9910392279774769
172500000.0 0.0888525549103676 -0.9960447898994805 8.207593586869306e-15 9.067607912008425e-16 8.424853417109964e-15 9.307632827326297e-16 0.13071906828018096 -0.9914194496720152
173000000.0 0.08598031655759857 -0.9962968358700408 8.212743369589264e-15 8.834235565432409e-16 8.430139517607805e-15 9.068082977458571e-16 0.12787309870458924 -0.9917905376780354
173500000.0 0.08311494373376441 -0.9965399671504065 8.217746044177046e-15 8.6011735422741e-16 8.435274615934673e-15 8.828851665451955e-16 0.12503324426690546 -0.992152552699479
174000000.0 0.0802564475225187 -0.996774248579419 8.22260251116575e-15 8.368430368945464e-16 8.440259636461316e-15 8.589947643417547e-16 0.12219952064435602 -0.9925055552259088
174500000.0 0.07740483857846091 -0.9969997447164379 8.227313672220007e-15 8.136014447538412e-16 8.44509550471995e-15 8.351379535855609e-16 0.1193719430908852 -0.9928496055308209
175000000.0 0.07456012713196244 -0.9972165198401326 8.231880430013833e-15 7.903934056669144e-16 8.449783147278904e-15 8.113155840522143e-16 0.11655052644135841 -0.9931847636700043
175500000.0 0.07172232299396529 -0.9974246379473234 8.236303688110454e-15 7.672197352327456e-16 8.45432349161926e-15 7.875284929300816e-16 0.11373528511574696 -0.993511089479951
176000000.0 0.06889143556075386 -0.9976241627518745 8.240584350844121e-15 7.440812368731368e-16 8.458717466013525e-15 7.637775049080136e-16 0.11092623312329858 -0.9938286425763124
176500000.0 0.06606747381869721 -0.9978151576836342 8.244723323203824e-15 7.209787019185873e-16 8.462965999406277e-15 7.400634322634917e-16 0.10812338406668368 -0.9941374823523998
177000000.0 0.06325044634896106 -0.9979976858874259 8.248721510718977e-15 6.979129096946164e-16 8.467070021296832e-15 7.163870749512388e-16 0.10532675114612775 -0.9944376679777379
177500000.0 0.060440361332193875 -0.9981718102220849 8.252579819346992e-15 6.74884627608496e-16 8.471030461623826e-15 6.927492206922499e-16 0.10253634716352099 -0.9947292583966564
178000000.0 0.05763722655318178 -0.9983375932595432 8.25629915536277e-15 6.518946112363545e-16 8.474848250651786e-15 6.691506450631979e-16 0.09975218452651179 -0.9950123123269322
178500000.0 0.05484104940547496 -0.9984950972839607 8.25988042525007e-15 6.28943604410623e-16 8.478524318859632e-15 6.45592111586199e-16 0.09697427525257715 -0.9952868882584748
179000000.0 0.0520518368959842 -0.9986443842909015 8.263324535594749e-15 6.060323393078326e-16 8.482059596831082e-15 6.220743718189222e-16 0.0942026309730757 -0.9955530444520525
179500000.0 0.04926959564954875 -0.9987855159865556 8.266632392979859e-15 5.831615365366856e-16 8.485455015146972e-15 5.985981654450087e-16 0.09143726293728012 -0.995810838938068
180000000.0 0.04649433191347192 -0.998918553787004 8.269804903882573e-15 5.603319052264169e-16 8.488711504279463e-15 5.751642203647639e-16 0.08867818201638752 -0.9960603295153704
180500000.0 0.04372605156202977 -0.9990435588175295 8.272842974572951e-15 5.375441431154053e-16 8.491829994488117e-15 5.517732527861083e-16 0.08592539870751151 -0.9963015737501146
181000000.0 0.040964760100948766 -0.9991605919119667 8.27574751101451e-15 5.147989366400225e-16 8.494811415717836e-15 5.284259673157889e-16 0.0831789231376504 -0.9965346289746589
181500000.0 0.03821046267185153 -0.9992697136120974 8.27851941876656e-15 4.920969610236816e-16 8.497656697498616e-15 5.0512305705078035e-16 0.0804387650676396 -0.9967595522865046
182000000.0 0.035463164056673435 -0.9993709841670857 8.281159602888351e-15 4.694388803660558e-16 8.50036676884716e-15 4.81865203669863e-16 0.07770493389607525 -0.996976400547278
182500000.0 0.03272286868204984 -0.9994644635329548 8.283668967844956e-15 4.468253477324826e-16 8.502942558170264e-15 4.586530775254002e-16 0.07497743866322182 -0.9971852303817494
183000000.0 0.02998958062367118 -0.9995502113721032 8.286048417414911e-15 4.242570052435054e-16 8.505384993170012e-15 4.3548733773524635e-16 0.07225628805489867 -0.9973860981768934
183500000.0 0.02726330361060779 -0.9996282870528604 8.288298854599553e-15 4.0173448416451836e-16 8.50769500075072e-15 4.1236863227475623e-16 0.0695414904063386 -0.9975790600809867
184000000.0 0.024544041029603652 -0.9996987496490817 8.290421181534123e-15 3.7925840499551736e-16 8.509873506927671e-15 3.8929759806892715e-16 0.06683305370603136 -0.9977641720027467
184500000.0 0.0218317959293396 -0.999761657939781 8.292416299400482e-15 3.5682937756093456e-16 8.511921436737555e-15 3.6627486108460633e-16 0.06413098559954057 -0.9979414896105039
185000000.0 0.019126571024667176 -0.9998170704088015 8.294285108341594e-15 3.3444800109953554e-16 8.513839714150635e-15 3.433010364227587e-16 0.061435293393300186 -0.9981110683314153
185500000.0 0.016428368700807952 -0.9998650452445222 8.296028507377593e-15 3.1211486435433857e-16 8.515629261984645e-15 3.203767284107764e-16 0.05874598405838819 -0.9982729633507119
186000000.0 0.01373719101752473 -0.9999056403396013 8.297647394323528e-15 2.898305456625627e-16 8.51729100182033e-15 2.975025306948074e-16 0.05606306423427488 -0.9984272296109836
186500000.0 0.01105303971326062 -0.9999389132907553 8.29914266570875e-15 2.675956130455887e-16 8.518825853918688e-15 2.7467902633208925e-16 0.05338654023255454 -0.9985739218114991
187000000.0 0.008375916209247831 -0.9999649213985736 8.300515216697866e-15 2.454106242988897e-16 8.520234737139866e-15 2.5190678788327253e-16 0.05071641804064706 -0.9987130944075612
187500000.0 0.005705821613582627 -0.9999837216673648 8.301765941013321e-15 2.2327612708192927e-16 8.521518568863673e-15 2.2918637750468667e-16 0.04805270332548173 -0.9988448016098964
188000000.0 0.003042756725272759 -0.9999953708050408 8.302895730859544e-15 2.0119265900801864e-16 8.522678264911707e-15 2.0651834704058385e-16 0.04539540143715475 -0.998969097384078
188500000.0 0.0003867220382511451 -0.9999999252230297 8.303905476848642e-15 1.7916074773409706e-16 8.523714739471105e-15 1.8390323811529292e-16 0.042744517412566074 -0.999086035449984
189000000.0 -0.0022622822546414308 -0.999997441036226 8.30479606792767e-15 1.571809110504231e-16 8.524628905019875e-15 1.6134158222528803e-16 0.04010005597902967 -0.9991956692812869
189500000.0 -0.004904256257703634 -0.9999879740629677 8.305568391307386e-15 1.3525365697018917e-16 8.525421672253758e-15 1.3883390083116517e-16 0.037462021557863344 -0.9992980521049755
190000000.0 -0.007539200368453577 -0.9999715798250489 8.306223332392542e-15 1.133794838189856e-16 8.526093950014699e-15 1.1638070544948797e-16 0.034830418267952884 -0.9993932369009105
190500000.0 -0.010167115273739234 -0.9999483135477606 8.306761774713656e-15 9.15588803241684e-17 8.526646645220781e-15 9.398249774451413e-17 0.032205249929294306 -0.9994812764014098
191000000.0 -0.012788001945881285 -0.9999182301599627 8.307184599860253e-15 6.979232570405045e-17 8.527080662797731e-15 7.163976961974658e-17 0.029586520066510556 -0.999562223090866
191500000.0 -0.015401861638844348 -0.999881384294186 8.307492687415595e-15 4.8080289756956374e-17 8.527396905611891e-15 4.935300330934566e-17 0.026974231912344517 -0.9996361292053919
192000000.0 -0.018008695884443475 -0.9998378302867629 8.307686914892813e-15 2.642323295009052e-17 8.527596274404682e-15 2.7122671469359054e-17 0.024368388411131803 -0.9997030467325007
192500000.0 -0.020608506488578475 -0.9997876221779857 8.307768157672481e-15 4.821606508220513e-18 8.527679667728513e-15 4.94923726873276e-18 0.021768992222243468 -0.9997630274108099
193000000.0 -0.023201295527502094 -0.999730813712294 8.307737288941596e-15 -1.672414749785352e-17 8.52764798188417e-15 -1.7166845519855615e-17 0.01917604572350892 -0.9998161227297796
193500000.0 -0.02578706534411625 -0.9996674583384907 8.307595179633982e-15 -3.8213596063016487e-17 8.527502110859586e-15 -3.9225132429391396e-17 0.016589551014615154 -0.9998623839294752
194000000.0 -0.02836581854430154 -0.9995976092099819 8.307342698371985e-15 -5.964631515981239e-17 8.527242946270069e-15 -6.122518820816045e-17 0.014009509920478573 -0.9999018620003605
194500000.0 -0.03093755799327906 -0.999521319185045 8.30698071140963e-15 -8.102188965063617e-17 8.526871377299885e-15 -8.316658672962325e-17 0.011435923994596907 -0.9999346076831174
195000000.0 -0.03350228681199941 -0.9994386408271227 8.306510082577024e-15 -1.0233991320020107e-16 8.526388290645239e-15 -1.0504891090255967e-16 0.008868794522371647 -0.9999606714684931
195500000.0 -0.036060008373564455 -0.9993496264051428 8.30593167322618e-15 -1.2359998818823638e-16 8.525794570458638e-15 -1.2687175258145468e-16 0.00630812252441293 -0.9999801035971749
196000000.0 -0.03861072629968295 -0.9992543278938605 8.305246342178044e-15 -1.4480172562249588e-16 8.52509109829452e-15 -1.4863471247720823e-16 0.003753908759814689 -0.9999929540596888
196500000.0 -0.04115444445715155 -0.9991527969742282 8.304454945670904e-15 -1.6594474505202646e-16 8.52427875305631e-15 -1.70337400068111e-16 0.0012061537294067452 -0.9999992725963258
197000000.0 -0.04369116695437029 -0.9990450850337863 8.303558337310033e-15 -1.8702867448074507e-16 8.52335841094471e-15 -1.9197943351111615e-16 -0.0013351423210137916 -0.9999991086970942
197500000.0 -0.046220898137888 -0.9989312431670795 8.30255736801858e-15 -2.0805315028131108e-16 8.52233094540731e-15 -2.135604395534625e-16 -0.003869979397480328 -0.9999925116016936
198000000.0 -0.048743642588977405 -0.9988113221760945 8.301452885989745e-15 -2.290178171093344e-16 8.521197227089476e-15 -2.3508005344458146e-16 -0.006398357754676116 -0.9999795302995174
198500000.0 -0.05125940512024209 -0.9986853725707207 8.300245736640148e-15 -2.499223278178954e-16 8.519958123786506e-15 -2.565379188483699e-16 -0.008920277892777563 -0.9999602135296763
199000000.0 -0.053768190772252034 -0.9985534445692322 8.298936762564404e-15 -2.7076634337239657e-16 8.518614500396994e-15 -2.779336877557824e-16 -0.011435740554323245 -0.9999346097810468
199500000.0 -0.05627000481021228 -0.9984155880987929 8.297526803490945e-15 -2.9154953276577977e-16 8.517167218877468e-15 -2.992670203978147e-16 -0.013944746721105785 -0.9999027672923424
200000000.0 -0.05876485272065846 -0.9982718527959804 8.296016696238935e-15 -3.122715729340806e-16 8.515617138198199e-15 -3.205375851588063e-16 -0.016447297611090136 -0.9998647340522078
