! Created with skrf 2.0.1 (http://scikit-rf.org).
# Hz S RI R 50.0 
!freq ReS11 ImS11 ReS12 ImS12 ReS13 ImS13
! ReS14 ImS14
! ReS21 ImS21 ReS22 ImS22 ReS23 ImS23
! ReS24 ImS24
! ReS31 ImS31 ReS32 ImS32 ReS33 ImS33
! ReS34 ImS34
! ReS41 ImS41 ReS42 ImS42 ReS43 ImS43
! ReS44 ImS44
!
500000.0 0.9999574672089759 -0.0077447444442228655 -6.537677986425865e-06 0.0007398846241026215 2.453523450523311e-05 0.003502429910060296 2.4535234505231743e-05 0.003502429910060432
 -6.5376779864258565e-06 0.0007398846241026214 0.9999574672089762 -0.007744744444221136 2.4535234505230984e-05 0.003502429910060417 2.4535234505230797e-05 0.0035024299100606957
 2.4535234505233094e-05 0.0035024299100602932 2.4535234505230987e-05 0.0035024299100604177 0.9999589299241856 -0.007568701901460659 -8.000393196209161e-06 0.0005638420813404066
 2.4535234505231726e-05 0.003502429910060428 2.4535234505230774e-05 0.003502429910060692 -8.000393196209158e-06 0.0005638420813404063 0.9999589299241858 -0.007568701901459322
1000000.0 0.9998298871679775 -0.015487999761916449 -2.6140153341281276e-05 0.0014803422086535891 9.812649268187769e-05 0.007003828776631776 9.812649268187223e-05 0.007003828776632048
 -2.614015334128127e-05 0.0014803422086535891 0.9998298871679776 -0.015487999761912985 9.812649268186915e-05 0.007003828776632018 9.81264926818684e-05 0.007003828776632575
 9.812649268187764e-05 0.007003828776631773 9.812649268186917e-05 0.007003828776632019 0.999835737422731 -0.015135969368469938 -3.199040809477223e-05 0.001128311815207062
 9.812649268187216e-05 0.007003828776632043 9.812649268186833e-05 0.007003828776632568 -3.199040809477222e-05 0.0011283118152070613 0.9998357374227311 -0.015135969368467264
1500000.0 0.9996173148498706 -0.023228278002893916 -5.877576940989232e-05 0.002221944867486339 0.00022073045976961171 0.010503166567704312 0.00022073045976959938 0.010503166567704714
 -5.8775769409892276e-05 0.002221944867486339 0.999617314849871 -0.023228278002888725 0.00022073045976959247 0.010503166567704674 0.00022073045976959074 0.010503166567705504
 0.00022073045976961155 0.010503166567704303 0.00022073045976959247 0.010503166567704673 0.9996304756507159 -0.0227003691114376 -7.193657025520312e-05 0.001694035976030001
 0.00022073045976959927 0.010503166567704711 0.0002207304597695906 0.010503166567705498 -7.193657025520312e-05 0.0016940359760299996 0.9996304756507159 -0.02270036911143359
2000000.0 0.9993198417983087 -0.030964093567445672 -0.00010439182890685525 0.002965263023162983 0.0003922750152990027 0.013999415272142041 0.0003922750152989808 0.01399941527214258
 -0.00010439182890685515 0.0029652630231629825 0.999319841798309 -0.030964093567438754 0.00039227501529896867 0.013999415272142528 0.00039227501529896547 0.01399941527214363
 0.0003922750152990024 0.013999415272142029 0.00039227501529896867 0.013999415272142528 0.9993432331237209 -0.030260470128320033 -0.00012778315431885196 0.002261639584037306
 0.0003922750152989805 0.013999415272142572 0.0003922750152989652 0.013999415272143623 -0.000127783154318852 0.0022616395840373052 0.999343233123721 -0.03026047012831468
2500000.0 0.9989375960112596 -0.03869396437606632 -0.0001629146894279758 0.0037108645662277 0.000612659339084128 0.017491549904920172 0.0006126593390840938 0.017491549904920852
 -0.00016291468942797568 0.003710864566227701 0.99893759601126 -0.03869396437605766 0.0006126593390840745 0.01749154990492078 0.0006126593390840698 0.01749154990492217
 0.0006126593390841275 0.01749154990492016 0.0006126593390840744 0.01749154990492078 0.998974133603705 -0.037814844842961735 -0.00019945228187337905 0.002831745033123089
 0.0006126593390840934 0.01749154990492084 0.0006126593390840694 0.017491549904922157 -0.00019945228187337894 0.0028317450331230877 0.9989741336037052 -0.03781484484295505
3000000.0 0.9984707417783645 -0.04641641303258858 -0.00023424989677461614 0.004459314020306903 0.0008817540592050943 0.020978549506141874 0.0008817540592050455 0.020978549506142696
 -0.00023424989677461598 0.004459314020306902 0.9984707417783647 -0.04641641303257819 0.0008817540592050173 0.020978549506142603 0.000881754059205011 0.02097854950614428
 0.0008817540592050937 0.020978549506141864 0.0008817540592050176 0.02097854950614261 0.9985233359396561 -0.04536207023693968 -0.00028684405806640153 0.0034049712246579694
 0.000881754059205045 0.020978549506142686 0.0008817540592050106 0.020978549506144268 -0.0002868440580664015 0.0034049712246579673 0.9985233359396567 -0.04536207023693169
3500000.0 0.9979194794725492 -0.05412996797856151 -0.0003182823557002067 0.005211171714971719 0.0011994014415754653 0.024459398131796102 0.001199401441575399 0.024459398131797063
 -0.0003182823557002064 0.005211171714971718 0.9979194794725498 -0.0541299679785494 0.001199401441575361 0.02445939813179696 0.001199401441575352 0.024459398131798902
 0.0011994014415754642 0.02445939813179608 0.0011994014415753612 0.02445939813179696 0.9979910338634227 -0.05290072897277913 -0.0003898367465738315 0.0039819327091893
 0.0011994014415753979 0.02445939813179704 0.0011994014415753515 0.02445939813179889 -0.0003898367465738315 0.003981932709189296 0.9979910338634231 -0.05290072897276978
4000000.0 0.9972840452964262 -0.06183316463673966 -0.00041487653758020014 0.005966992968250005 0.0015654156205769441 0.02793308583424622 0.0015654156205768572 0.02793308583424731
 -0.00041487653758019976 0.005966992968250005 0.997284045296427 -0.06183316463672585 0.0015654156205768086 0.0279330858342472 0.0015654156205767965 0.027933085834249423
 0.0015654156205769428 0.027933085834246196 0.0015654156205768086 0.0279330858342472 0.9973774557412648 -0.06042941050643952 -0.0005082869824187471 0.004563238837949782
 0.0015654156205768559 0.02793308583424729 0.0015654156205767952 0.027933085834249402 -0.000508286982418747 0.00456323883794978 0.9973774557412652 -0.060429410506428825
4500000.0 0.9965647109841339 -0.06952454654158706 -0.0005238767244005014 0.0067273272806398846 0.00197958287013328 0.031398609630475145 0.00197958287013317 0.03139860963047638
 -0.0005238767244005014 0.0067273272806398846 0.9965647109841348 -0.06952454654157152 0.0019795828701331085 0.031398609630476255 0.0019795828701330933 0.03139860963047876
 0.0019795828701332785 0.031398609630475124 0.001979582870133109 0.031398609630476255 0.9966828642817624 -0.06794671218700496 -0.0006420300220292075 0.005149492926057716
 0.0019795828701331688 0.03139860963047636 0.0019795828701330916 0.03139860963047873 -0.000642030022029207 0.0051494929260577135 0.996682864281763 -0.06794671218699296
5000000.0 0.9957617834593799 -0.07720266645474305 -0.0006451072883558758 0.0074927175424350555 0.00244166191448773 0.03485497445615573 0.002441661914487594 0.03485497445615711
 -0.0006451072883558754 0.007492717542435052 0.9957617834593814 -0.0772026664547258 0.002441661914487518 0.03485497445615697 0.0024416619144875004 0.03485497445615976
 0.002441661914487728 0.03485497445615571 0.002441661914487518 0.03485497445615696 0.9959075562008431 -0.07545124034155813 -0.0007908800298187176 0.0057412914292500295
 0.0024416619144875928 0.034854974456157074 0.0024416619144874987 0.03485497445615974 -0.0007908800298187176 0.005741291429250026 0.9959075562008439 -0.0754512403415448
5500000.0 0.9948756044505612 -0.08486608746344801 -0.0007783730062494435 0.008263699256123953 0.002951384277843936 0.03830119410366393 0.0029513842778437723 0.03830119410366544
 -0.0007783730062494428 0.008263699256123951 0.9948756044505628 -0.08486608746342907 0.0029513842778436813 0.03830119410366529 0.0029513842778436583 0.03830119410366835
 0.0029513842778439345 0.038301194103663914 0.002951384277843682 0.03830119410366531 0.9950518618447836 -0.08294161134326489 -0.0009546304004715033 0.006339223135940731
 0.00295138427784377 0.03830119410366542 0.002951384277843656 0.03830119410366833 -0.0009546304004715028 0.006339223135940726 0.995051861844784 -0.08294161134325019
6000000.0 0.9939065500639286 -0.09251338405998315 -0.0009234594077875866 0.00904079977557054 0.003508454671929313 0.041736292142208385 0.0035084546719291194 0.041736292142210044
 -0.0009234594077875854 0.00904079977557054 0.9939065500639302 -0.09251338405996248 0.003508454671929009 0.04173629214220988 0.0035084546719289845 0.04173629214221323
 0.00350845467192931 0.04173629214220836 0.0035084546719290092 0.041736292142209884 0.994116144772158 -0.09041645266075543 -0.0011330541160168115 0.006943868376342736
 0.0035084546719291168 0.041736292142210016 0.0035084546719289823 0.0417362921422132 -0.001133054116016811 0.00694386837634273 0.994116144772159 -0.0904164526607395
6500000.0 0.9928550303158848 -0.10014314320024223 -0.0010801331567717649 0.00982453756362439 0.004112551420443219 0.04515930281831117 0.004112551420442993 0.04515930281831298
 -0.0010801331567717632 0.009824537563624388 0.9928550303158868 -0.10014314320021989 0.004112551420442864 0.0451593028183128 0.004112551420442835 0.04515930281831642
 0.004112551420443215 0.045159302818311126 0.004112551420442864 0.045159302818312805 0.9931008012957957 -0.09787440388694836 -0.0013259041366825372 0.007555798250330412
 0.004112551420442989 0.045159302818312944 0.004112551420442832 0.0451593028183164 -0.0013259041366825367 0.007555798250330409 0.9931008012957971 -0.0978744038869311
7000000.0 0.9917214886255799 -0.10775396533962114 -0.0012481424641003355 0.010615421469742042 0.004763326919259927 0.04856927193494196 0.004763326919259666 0.04856927193494392
 -0.0012481424641003337 0.01061542146974204 0.9917214886255825 -0.10775396533959711 0.0047633269192595175 0.04856927193494374 0.004763326919259482 0.04856927193494763
 0.0047633269192599225 0.04856927193494192 0.0047633269192595175 0.04856927193494374 0.9920062599859087 -0.10531411774553333 -0.0015329138244289328 0.008175573875654122
 0.0047633269192596615 0.048569271934943876 0.004763326919259481 0.048569271934947617 -0.0015329138244289339 0.008175573875654115 0.9920062599859102 -0.10531411774551475
7500000.0 0.9905064012690714 -0.11534446544448596 -0.0014272175314097235 0.011413950029130857 0.005460408131168805 0.05196525770768013 0.005460408131168504 0.051965257707682226
 -0.0014272175314097226 0.011413950029130855 0.9905064012690741 -0.11534446544446023 0.0054604081311683365 0.05196525770768205 0.005460408131168296 0.051965257707686216
 0.0054604081311688014 0.0519652577076801 0.0054604081311683365 0.051965257707682046 0.9908329811356406 -0.1127342610734018 -0.0017537973979783704 0.008803745658046576
 0.0054604081311685005 0.05196525770768219 0.005460408131168293 0.0519652577076862 -0.0017537973979783704 0.008803745658046572 0.9908329811356421 -0.1127342610733819
8000000.0 0.9892102767964016 -0.12291327397755943 -0.0016170710241056726 0.012220610784850906 0.00620339711385178 0.055346331596357004 0.006203397113851441 0.05534633159635926
 -0.001617071024105672 0.012220610784850908 0.9892102767964047 -0.12291327397753204 0.006203397113851249 0.05534633159635906 0.006203397113851207 0.055346331596363534
 0.006203397113851775 0.05534633159635696 0.00620339711385125 0.055346331596359065 0.9895814561903731 -0.12013351577739335 -0.001988250418077423 0.009440852584684734
 0.0062033971138514355 0.05534633159635922 0.006203397113851203 0.05534633159636351 -0.0019882504180774216 0.00944085258468473 0.9895814561903755 -0.12013351577737219
8500000.0 0.9878336554130189 -0.13045903785564933 -0.0018173985724619754 0.013035879634230425 0.006991871579721139 0.058711579110712384 0.006991871579720759 0.05871157911071479
 -0.0018173985724619732 0.013035879634230422 0.9878336554130225 -0.13045903785562027 0.0069918715797205435 0.05871157911071459 0.006991871579720495 0.058711579110719336
 0.006991871579721134 0.058711579110712335 0.006991871579720544 0.05871157911071458 0.9882522071422103 -0.12751057976380928 -0.0022359503016532146 0.010087421542390198
 0.006991871579720754 0.05871157911071476 0.006991871579720493 0.05871157911071932 -0.0022359503016532154 0.010087421542390193 0.9882522071422128 -0.1275105797637868
9000000.0 0.9863771083270565 -0.13798042137823135 -0.002027879299396377 0.01386022020086635 0.00782538548616945 0.0620601005886856 0.007825385486169026 0.06206010058868817
 -0.0020278792993963764 0.01386022020086635 0.9863771083270605 -0.13798042137820066 0.007825385486168783 0.06206010058868796 0.007825385486168734 0.06206010058869301
 0.007825385486169447 0.06206010058868557 0.007825385486168786 0.062060100588687966 0.9868457858911177 -0.13486416783923166 -0.002496556863457274 0.010743966661866467
 0.00782538548616902 0.06206010058868812 0.007825385486168727 0.06206010058869295 -0.002496556863457272 0.01074396666186646 0.9868457858911203 -0.1348641678392079
9500000.0 0.9848412370640348 -0.14547610712549006 -0.0022481763734715087 0.014694083233393801 0.008703469654718016 0.06539101194605139 0.008703469654717537 0.06539101194605407
 -0.002248176373471507 0.014694083233393801 0.9848412370640387 -0.1454761071254576 0.008703469654717272 0.06539101194605386 0.008703469654717215 0.06539101194605919
 0.008703469654718009 0.06539101194605135 0.00870346965471727 0.06539101194605386 0.9853627735742905 -0.1421930125812794 -0.002769712883727266 0.011410988689183025
 0.008703469654717536 0.06539101194605404 0.008703469654717211 0.06539101194605916 -0.0027697128837272673 0.011410988689183018 0.9853627735742937 -0.14219301258125439
10000000.0 0.9832266727506297 -0.1529447968245177 -0.0024779375856128034 0.015537906032117625 0.009625632417491033 0.06870344539620345 0.009625632417490513 0.06870344539620632
 -0.0024779375856128025 0.015537906032117625 0.9832266727506346 -0.15294479682448367 0.009625632417490215 0.06870344539620608 0.009625632417490159 0.06870344539621173
 0.009625632417491026 0.06870344539620342 0.009625632417490215 0.0687034453962061 0.983803779865357 -0.14949586517802496 -0.003055044700340307 0.012088974385624767
 0.009625632417490508 0.06870344539620629 0.00962563241749015 0.06870344539621169 -0.003055044700340306 0.012088974385624758 0.9838037798653607 -0.14949586517799868
10500000.0 0.9815340753692051 -0.16038521218246996 -0.002716795947985758 0.016392111904505697 0.010591360289389753 0.07199655013898575 0.01059136028938918 0.07199655013898874
 -0.0027167959479857564 0.0163921119045057 0.9815340753692106 -0.16038521218243437 0.010591360289388856 0.07199655013898852 0.010591360289388793 0.07199655013899445
 0.010591360289389746 0.0719965501389857 0.01059136028938886 0.07199655013898855 0.9821694422451005 -0.1567714962348955 -0.0033521628238808426 0.012778395956931053
 0.010591360289389177 0.07199655013898873 0.010591360289388787 0.07199655013899439 -0.0033521628238808413 0.012778395956931048 0.982169442245104 -0.1567714962348679
11000000.0 0.9797641329848418 -0.16779609568557616 -0.002964370313431493 0.01725710965044805 0.011600118664294203 0.07526949301756784 0.011600118664293576 0.07526949301757101
 -0.002964370313431491 0.01725710965044805 0.9797641329848477 -0.16779609568553894 0.011600118664293226 0.0752694930175708 0.011600118664293155 0.07526949301757699
 0.011600118664294196 0.07526949301756779 0.011600118664293228 0.0752694930175708 0.9804604252454125 -0.1640186965479805 -0.0036606625740020528 0.013479710512852187
 0.011600118664293571 0.075269493017571 0.01160011866429315 0.07526949301757696 -0.003660662574002054 0.013479710512852183 0.9804604252454168 -0.16401869654795165
11500000.0 0.9779175609466609 -0.17517621136300676 -0.0032202660138226273 0.018133293078088298 0.012651352533580226 0.07852145914246315 0.01265135253357955 0.07852145914246651
 -0.003220266013822626 0.018133293078088294 0.9779175609466673 -0.1751762113629679 0.012651352533579163 0.07852145914246629 0.012651352533579092 0.07852145914247276
 0.012651352533580221 0.07852145914246314 0.012651352533579166 0.0785214591424663 0.9786774196682602 -0.17123627784277146 -0.003980124735421785 0.014193359557852848
 0.012651352533579543 0.07852145914246648 0.012651352533579085 0.07852145914247274 -0.003980124735421784 0.01419335955785284 0.9786774196682645 -0.1712362778427414
12000000.0 0.9759951010652578 -0.1825243455147042 -0.003484075515670964 0.01902104055093522 0.013744487225205963 0.08175165248188862 0.013744487225205219 0.0817516524818921
 -0.003484075515670961 0.019021040550935224 0.9759951010652647 -0.18252434551466373 0.013744487225204806 0.08175165248189188 0.01374448722520473 0.08175165248189865
 0.01374448722520595 0.08175165248188855 0.013744487225204806 0.08175165248189188 0.9768211417814495 -0.17842307347746147 -0.0043101162318628025 0.014919768513692307
 0.013744487225205214 0.08175165248189206 0.013744487225204723 0.08175165248189863 -0.004310116231862803 0.0149197685136923 0.9768211417814544 -0.17842307347743014
12500000.0 0.9739975207681031 -0.18983930740238905 -0.0037553790912943554 0.01992071456686265 0.014878929161594907 0.08495929641776746 0.01487892916159411 0.08495929641777113
 -0.0037553790912943567 0.019920714566862646 0.9739975207681102 -0.1898393074023469 0.014878929161593652 0.08495929641777089 0.014878929161593576 0.08495929641777798
 0.014878929161594898 0.08495929641776744 0.01487892916159366 0.0849592964177709 0.9748923324930311 -0.1855779391100373 -0.004650190816222321 0.01565934627451077
 0.014878929161594103 0.0849592964177711 0.014878929161593571 0.08495929641777793 -0.004650190816222317 0.015659346274510762 0.9748923324930362 -0.18557793911000475
13000000.0 0.9719256122347856 -0.19711992990305896 -0.00403374550383261 0.020832661369505803 0.016054066634522676 0.08814363426678104 0.016054066634521823 0.08814363426678487
 -0.004033745503832608 0.0208326613695058 0.9719256122347935 -0.19711992990301538 0.01605406663452134 0.08814363426678466 0.01605406663452126 0.08814363426679203
 0.016054066634522666 0.08814363426678097 0.016054066634521344 0.08814363426678465 0.9728917565061904 -0.19269975332850364 -0.00499988977523741 0.016412484794950243
 0.016054066634521816 0.08814363426678483 0.016054066634521247 0.08814363426679198 -0.004999889775237409 0.016412484794950236 0.972891756506196 -0.1926997533284698
13500000.0 0.9697801915139888 -0.20436507012440527 -0.004318732704390848 0.021757210592462172 0.017269270595200226 0.09130392976597616 0.01726927059519931 0.09130392976598015
 -0.004318732704390848 0.021757210592462176 0.9697801915139969 -0.20436507012436 0.017269270595198786 0.09130392976597994 0.017269270595198706 0.0913039297659876
 0.017269270595200212 0.09130392976597611 0.017269270595198786 0.09130392976597994 0.9708202014564987 -0.19978741824368057 -0.005358742646900994 0.01717955871173729
 0.017269270595199303 0.09130392976598013 0.017269270595198696 0.09130392976598754 -0.005358742646900993 0.01717955871173728 0.970820201456505 -0.19978741824364563
14000000.0 0.9675620976241035 -0.21157360998167565 -0.004609888539583994 0.022694674936605652 0.01852389545773925 0.09443946752253979 0.018523895457738276 0.09443946752254398
 -0.004609888539583987 0.022694674936605656 0.9675620976241129 -0.21157360998162889 0.018523895457737707 0.09443946752254373 0.01852389545773763 0.09443946752255172
 0.018523895457739234 0.09443946752253972 0.018523895457737714 0.09443946752254374 0.9686784770333973 -0.20683986004412477 -0.0057262679488775245 0.017960924999054603
 0.018523895457738266 0.09443946752254391 0.018523895457737624 0.09443946752255168 -0.005726267948877526 0.01796092499905459 0.9686784770334039 -0.20683986004408864
14500000.0 0.9652721916393862 -0.21874445673562048 -0.004906751467757087 0.02364534988072371 0.019817279914184412 0.09754955342745336 0.01981727991418337 0.09754955342745769
 -0.004906751467757082 0.02364534988072371 0.9652721916393963 -0.21874445673557222 0.019817279914182778 0.0975495534274575 0.01981727991418269 0.09754955342746577
 0.019817279914184402 0.0975495534274533 0.019817279914182778 0.09754955342745751 0.9664674140877976 -0.21385602951282573 -0.006101973916168154 0.018756922657928693
 0.01981727991418336 0.09754955342745765 0.019817279914182685 0.09754955342746573 -0.0061019739161681545 0.018756922657928686 0.9664674140878046 -0.21385602951278834
15000000.0 0.962911355763558 -0.2258765434912597 -0.005208851282163554 0.02460951342559046 0.021148747759301614 0.10063351503283974 0.021148747759300514 0.1006335150328443
 -0.005208851282163551 0.02460951342559046 0.9629113557635685 -0.22587654349120984 0.021148747759299872 0.10063351503284407 0.021148747759299792 0.10063351503285264
 0.021148747759301603 0.1006335150328397 0.021148747759299875 0.10063351503284408 0.9641878637276766 -0.22083490250543203 -0.006485359246281861 0.01956787243976259
 0.0211487477593005 0.10063351503284422 0.02114874775929978 0.10063351503285259 -0.006485359246281858 0.019567872439762577 0.9641878637276841 -0.2208349025053935
15500000.0 0.9604804923927476 -0.23296882965731328 -0.005515709839396499 0.025587425871492504 0.022517608723323243 0.10369070189291571 0.022517608723322077 0.10369070189292046
 -0.005515709839396493 0.0255874258714925 0.9604804923927586 -0.23296882965726193 0.02251760872332139 0.1036907018929202 0.022517608723321317 0.10369070189292912
 0.02251760872332323 0.10369070189291567 0.022517608723321397 0.10369070189292023 0.9618406964035329 -0.22777548038986684 -0.006875913850181653 0.020394076604045772
 0.022517608723322067 0.1036907018929204 0.022517608723321307 0.10369070189292906 -0.006875913850181653 0.020394076604045762 0.961840696403541 -0.2277754803898271
16000000.0 0.9579805231696491 -0.24002030136623728 -0.005826841791387016 0.026579329629130826 0.023923159310867574 0.10672048586855873 0.023923159310866325 0.10672048586856364
 -0.005826841791387012 0.026579329629130823 0.9579805231696612 -0.24002030136618452 0.023923159310865628 0.10672048586856346 0.023923159310865538 0.10672048586857265
 0.023923159310867557 0.10672048586855866 0.02392315931086563 0.10672048586856346 0.9594268009855559 -0.23467679044728587 -0.007273119607293336 0.021235818710178957
 0.02392315931086631 0.10672048586856357 0.023923159310865524 0.10672048586857258 -0.007273119607293334 0.02123581871017895 0.9594268009855644 -0.2346767904472448
16500000.0 0.9554123880307602 -0.24702997185490547 -0.006141755319307641 0.027585449063731185 0.02536468364427233 0.10972226139559278 0.025364683644271017 0.10972226139559788
 -0.006141755319307637 0.02758544906373118 0.9554123880307727 -0.24702997185485115 0.025364683644270258 0.10972226139559767 0.02536468364427018 0.10972226139560717
 0.025364683644272308 0.10972226139559271 0.025364683644270265 0.1097222613955977 0.9569470838343409 -0.2415378862344337 -0.007676451122888078 0.022093363443259073
 0.025364683644270997 0.1097222613955978 0.025364683644270167 0.10972226139560712 -0.0076764511228880755 0.02209336344325906 0.9569470838343499 -0.2415378862343915
17000000.0 0.9527770442485254 -0.25399688180607294 -0.006459952867748484 0.028605990372106562 0.02684145430961004 0.11269544571698899 0.026841454309608662 0.11269544571699432
 -0.006459952867748478 0.02860599037210656 0.9527770442485387 -0.25399688180601715 0.026841454309607868 0.11269544571699411 0.026841454309607785 0.1126954457170039
 0.026841454309610012 0.11269544571698892 0.02684145430960787 0.11269544571699412 0.9544024678669564 -0.248357847907547 -0.00808537648617912 0.022966956473580217
 0.026841454309608635 0.11269544571699419 0.026841454309607767 0.11269544571700382 -0.008085376486179116 0.022966956473580203 0.9544024678669657 -0.24835784790750365
17500000.0 0.9500754654701938 -0.26092009965085106 -0.0067809318775678825 0.029641141492330037 0.028352733203685532 0.11563947907926649 0.028352733203684075 0.11563947907927193
 -0.006780931877567879 0.02964114149233003 0.9500754654702079 -0.2609200996507938 0.028352733203683242 0.11563947907927177 0.028352733203683183 0.11563947907928193
 0.028352733203685507 0.1156394790792664 0.02835273320368325 0.11563947907927181 0.9517938916201331 -0.25513578250804136 -0.008499358027507006 0.023856824349520005
 0.028352733203684064 0.1156394790792719 0.02835273320368316 0.11563947907928186 -0.008499358027507006 0.02385682434951999 0.9517938916201432 -0.2551357825079969
18000000.0 0.9473086407551478 -0.2677987218325101 -0.0071041855158584894 0.030691072045594247 0.029897772380353637 0.11855382489346405 0.02989777238035212 0.11855382489346976
 -0.007104185515858481 0.030691072045594254 0.9473086407551629 -0.2677987218324514 0.02989777238035124 0.11855382489346958 0.029897772380351174 0.11855382489348001
 0.029897772380353627 0.11855382489346401 0.029897772380351243 0.11855382489346962 0.949122308312316 -0.26187082421031344 -0.008917853073026321 0.02476317442339722
 0.0298977723803521 0.11855382489346965 0.02989777238035115 0.11855382489347996 -0.008917853073026318 0.024763174423397212 0.9491223083123268 -0.2618708242102678
18500000.0 0.9444775736124343 -0.27463187303201597 -0.007429203401512837 0.031755933309755374 0.03147581489453742 0.1214379698611366 0.031475814894535825 0.12143796986114244
 -0.0074292034015128305 0.031755933309755374 0.9444775736124499 -0.2746318730319558 0.031475814894534895 0.12143796986114232 0.031475814894534826 0.12143796986115302
 0.03147581489453741 0.12143796986113653 0.0314758148945349 0.12143796986114233 0.9463886849062723 -0.26856213453206845 -0.009340314695350198 0.025686194809807508
 0.031475814894535804 0.12143796986114237 0.03147581489453482 0.12143796986115296 -0.009340314695350195 0.025686194809807498 0.9463886849062833 -0.2685621345320217
19000000.0 0.9415832810401703 -0.28141870635578475 -0.007755472324920029 0.03283585822398401 0.03308609564237303 0.12429142406590685 0.03308609564237136 0.1242914240659129
 -0.007755472324920027 0.03283585822398401 0.9415832810401868 -0.28141870635572325 0.0330860956423704 0.12429142406591283 0.03308609564237034 0.12429142406592385
 0.03308609564237301 0.12429142406590679 0.0330860956423704 0.12429142406591281 0.9435940011739063 -0.2752089025076688 -0.009766192458655926 0.02662605437586759
 0.03308609564237134 0.12429142406591284 0.03308609564237032 0.12429142406592378 -0.00976619245865593 0.02662605437586758 0.9435940011739182 -0.2752089025076209
19500000.0 0.9386267925684557 -0.288158403486222 -0.008082476960376 0.03393096142387565 0.03472784219595822 0.12711372103117982 0.03472784219595648 0.1271137210311861
 -0.008082476960375997 0.033930961423875645 0.9386267925684728 -0.288158403486159 0.034727842195955476 0.127113721031186 0.034727842195955434 0.1271137210311974
 0.0347278421959582 0.12711372103117977 0.034727842195955476 0.127113721031186 0.940739248764886 -0.28181034482507356 -0.010194933156805955 0.0275829027627268
 0.03472784219595646 0.12711372103118604 0.0347278421959554 0.12711372103119728 -0.010194933156805948 0.027582902762726784 0.9407392487648982 -0.2818103448250246
20000000.0 0.9356091493073715 -0.29485017479568243 -0.008409700569844452 0.035041339306305916 0.036400275631234345 0.1299044177446951 0.03640027563123252 0.12990441774470154
 -0.008409700569844445 0.03504133930630591 0.9356091493073896 -0.29485017479561804 0.03640027563123148 0.1299044177447015 0.036400275631231445 0.1299044177447132
 0.036400275631234325 0.12990441774469502 0.03640027563123148 0.1299044177447015 0.9378254302806208 -0.28836570592701416 -0.010625981543092978 0.028556870437637077
 0.0364002756312325 0.12990441774470146 0.03640027563123142 0.1299044177447131 -0.010625981543092975 0.02855687043763706 0.9378254302806335 -0.288365705926964
20500000.0 0.9325314030015804 -0.3014932594245612 -0.00873662569676304 0.03616707012325405 0.03810261134758921 0.13266309465066056 0.03810261134758731 0.13266309465066725
 -0.00873662569676303 0.03616707012325405 0.9325314030015991 -0.3014932594244955 0.03810261134758621 0.13266309465066717 0.038102611347586184 0.13266309465067916
 0.038102611347589174 0.13266309465066048 0.03810261134758623 0.13266309465066722 0.934853558355093 -0.29487425807711676 -0.011058781050275442 0.02954806877580912
 0.038102611347587294 0.13266309465066717 0.03810261134758616 0.1326630946506791 -0.011058781050275435 0.029548068775809098 0.9348535583551066 -0.2948742580770656
21000000.0 0.9293946150929896 -0.308086925324288 -0.009062734848649579 0.03730821410375974 0.03983405987782771 0.13538935561027124 0.039834059877825755 0.13538935561027815
 -0.009062734848649575 0.03730821410375974 0.9293946150930091 -0.3080869253242209 0.0398340598778246 0.1353893556102781 0.0398340598778246 0.13538935561029045
 0.03983405987782769 0.13538935561027116 0.03983405987782461 0.13538935561027812 0.93182465474397 -0.3013353013917522 -0.011492774499629689 0.030556590171223495
 0.039834059877825734 0.13538935561027807 0.03983405987782457 0.13538935561029034 -0.011492774499629694 0.03055659017122349 0.9318246547439841 -0.30133530139169995
21500000.0 0.9261998557928829 -0.3146304692660592 -0.00938751116732562 0.03846481360312562 0.041593827687219115 0.1380828278314741 0.04159382768721708 0.1380828278314812
 -0.009387511167325618 0.03846481360312562 0.926199855792903 -0.31463046926599075 0.04159382768721589 0.13808282783148118 0.04159382768721588 0.13808282783149384
 0.0415938276872191 0.13808282783147405 0.04159382768721589 0.1380828278314812 0.9287397494233653 -0.3077481638384451 -0.011927404797808065 0.03158250817551103
 0.04159382768721707 0.13808282783148118 0.04159382768721586 0.13808282783149373 -0.01192740479780806 0.03158250817551102 0.9287397494233801 -0.3077481638383918
22000000.0 0.9229482031648452 -0.3211232168161993 -0.009710439085639528 0.0396368932784284 0.04338111796039474 0.1407431617688929 0.043381117960392644 0.1407431617689003
 -0.009710439085639525 0.03963689327842839 0.9229482031648661 -0.3211232168161295 0.04338111796039139 0.14074316176890028 0.0433811179603914 0.14074316176891324
 0.043381117960394726 0.14074316176889287 0.0433811179603914 0.1407431617689003 0.9255998796995625 -0.3141122012017384 -0.012362115620356683 0.03262587766396694
 0.043381117960392616 0.1407431617689002 0.04338111796039137 0.14074316176891313 -0.01236211562035667 0.03262587766396693 0.9255998796995781 -0.31411220120168404
22500000.0 0.9196407422197602 -0.32756452227909255 -0.010031004969637429 0.04082446028935806 0.045195131374935985 0.14337003099487491 0.04519513137493381 0.14337003099488246
 -0.010031004969637427 0.04082446028935806 0.9196407422197826 -0.3275645222790216 0.04519513137493251 0.1433700309948825 0.04519513137493258 0.14337003099489584
 0.04519513137493595 0.14337003099487483 0.04519513137493252 0.14337003099488252 0.9224060893309365 -0.32042679701745325 -0.012796352080813415 0.033686735027718295
 0.0451951313749338 0.14337003099488244 0.04519513137493255 0.14337003099489576 -0.012796352080813415 0.03368673502771828 0.922406089330953 -0.3204267970173981
23000000.0 0.9162785640240725 -0.33395376860867426 -0.010348697745198214 0.04202750452336445 0.04703506686055998 0.14596313204266279 0.04703506686055772 0.14596313204267056
 -0.010348697745198202 0.042027504523364435 0.9162785640240961 -0.3339537686086021 0.047035066860556425 0.14596313204267067 0.04703506686055645 0.1459631320426842
 0.04703506686055995 0.1459631320426627 0.04703506686055641 0.14596313204267064 0.9191594276632491 -0.32669136247633374 -0.013229561384374295 0.03476509839102331
 0.047035066860557695 0.14596313204267047 0.047035066860556425 0.14596313204268416 -0.013229561384374292 0.034765098391023305 0.9191594276632657 -0.32669136247627734
23500000.0 0.912862764822452 -0.3402903672895138 -0.010663009508217499 0.04324599884405612 0.04890012234287999 0.1485221842227368 0.048900122342877675 0.14852218422274485
 -0.010663009508217488 0.04324599884405612 0.912862764822476 -0.34029036728944023 0.04890012234287627 0.14852218422274488 0.04890012234287637 0.1485221842227589
 0.048900122342879965 0.14852218422273675 0.04890012234287629 0.14852218422274494 0.9158609487794203 -0.33290533629810404 -0.013661193465185646 0.03586096785264586
 0.04890012234287765 0.1485221842227448 0.04890012234287634 0.1485221842227588 -0.013661193465185644 0.03586096785264584 0.9158609487794381 -0.33290533629804675
24000000.0 0.9093944451759163 -0.3465737581885547 -0.010973436117495024 0.044479899361765975 0.05078949547078637 0.15104692941340256 0.05078949547078397 0.1510469294134108
 -0.010973436117495015 0.04447989936176596 0.9093944451759411 -0.3465737581884798 0.050789495470782535 0.1510469294134109 0.05078949547078265 0.1510469294134252
 0.05078949547078634 0.15104692941340245 0.05078949547078254 0.15104692941341094 0.9125117106648108 -0.3390681845770055 -0.014090701606389052 0.03697432575021618
 0.050789495470783944 0.1510469294134107 0.05078949547078262 0.15104692941342512 -0.014090701606389052 0.03697432575021616 0.912511710664829 -0.3390681845769472
24500000.0 0.905874709116412 -0.352803409378619 -0.011279477769549899 0.045729145725172525 0.0527023843265658 0.1535371318267316 0.052702384326563316 0.15353713182674003
 -0.011279477769549894 0.045729145725172525 0.9058747091164382 -0.352803409378543 0.05270238432656186 0.15353713182674023 0.05270238432656199 0.15353713182675482
 0.05270238432656577 0.1535371318267315 0.052702384326561866 0.15353713182674025 0.9091127743889792 -0.3451794005999108 -0.014517543042116696 0.038105136946463794
 0.05270238432656329 0.15353713182673998 0.052702384326561956 0.15353713182675474 -0.014517543042116693 0.03810513694646377 0.909112774388998 -0.34517940059985147
25000000.0 0.9023046633187606 -0.3589788169347988 -0.011580639554658236 0.04699366143284421 0.054637988117945555 0.15599257775098582 0.054637988117942994 0.15599257775099454
 -0.011580639554658224 0.046993661432844204 0.9023046633187876 -0.3589788169347216 0.05463798811794148 0.15599257775099473 0.05463798811794163 0.15599257775100964
 0.05463798811794551 0.15599257775098574 0.0546379881179415 0.15599257775099476 0.9056652033048075 -0.3512385046381398 -0.014941179540704551 0.03925334913618454
 0.05463798811794296 0.15599257775099445 0.054637988117941606 0.15599257775100958 -0.014941179540704546 0.03925334913618452 0.9056652033048268 -0.3512385046380794
25500000.0 0.8986854162908279 -0.36509950470489383 -0.0118764319934775 0.04827335416355769 0.05659550785132137 0.15841307527067677 0.05659550785131877 0.1584130752706857
 -0.011876431993477491 0.048273354163557686 0.8986854162908559 -0.3650995047048153 0.056595507851317194 0.15841307527068593 0.05659550785131737 0.1584130752707012
 0.05659550785132133 0.15841307527067663 0.056595507851317214 0.15841307527068596 0.9021700622658129 -0.35724504371412424 -0.01536107796846186 0.04041889317278747
 0.05659550785131873 0.1584130752706856 0.05659550785131733 0.15841307527070111 -0.015361077968461858 0.04041889317278745 0.9021700622658331 -0.3572450437140629
26000000.0 0.8950180775826895 -0.3711650240550642 -0.01216637155369158 0.04956811612422824 0.058574146985497455 0.16079845396542689 0.05857414698549478 0.16079845396543613
 -0.01216637155369158 0.049568116124228234 0.8950180775827182 -0.37116502405498447 0.05857414698549317 0.16079845396543635 0.05857414698549337 0.16079845396545195
 0.05857414698549741 0.16079845396542675 0.05857414698549316 0.1607984539654363 0.8986284168624031 -0.3631985913440895 -0.015776710833404598 0.04160168341325278
 0.05857414698549475 0.16079845396543602 0.058574146985493326 0.1607984539654518 -0.015776710833404595 0.04160168341325276 0.8986284168624242 -0.36319859134402727
26500000.0 0.8913037570154982 -0.3771749535918897 -0.012449981146179389 0.0508778244142823 0.06057311206533676 0.16314856458881277 0.06057311206533404 0.1631485645888223
 -0.01244998114617938 0.0508778244142823 0.8913037570155283 -0.3771749535918091 0.06057311206533238 0.16314856458882254 0.06057311206533265 0.16314856458883853
 0.06057311206533673 0.1631485645888127 0.06057311206533239 0.1631485645888226 0.8950413326777501 -0.3690987472579319 -0.01618755680843051 0.042801618080323726
 0.060573112065334 0.16314856458882215 0.0605731120653326 0.16314856458883842 -0.016187556808430505 0.04280161808032369 0.895041332677772 -0.3690987472578689
27000000.0 0.8875435639306919 -0.3831288988620311 -0.012726790600277508 0.05220234140529748 0.06259161333478891 0.16546327872837602 0.0625916133347861 0.16546327872838576
 -0.012726790600277493 0.05220234140529747 0.8875435639307226 -0.3831288988619491 0.06259161333478439 0.16546327872838604 0.06259161333478466 0.16546327872840233
 0.06259161333478887 0.16546327872837588 0.0625916133347844 0.1654632787283861 0.891409874563896 -0.37494513709748356 -0.01659310123348113 0.0440185796407492
 0.06259161333478604 0.1654632787283856 0.06259161333478463 0.16546327872840222 -0.01659310123348112 0.04401857964074916 0.8914098745639182 -0.37494513709741945
27500000.0 0.8837386064601052 -0.38902649203070067 -0.012996337117774433 0.05354151513473532 0.06462886532883058 0.16774248844799203 0.06462886532882771 0.16774248844800202
 -0.012996337117774422 0.05354151513473532 0.8837386064601371 -0.3890264920306175 0.06462886532882596 0.16774248844800244 0.06462886532882628 0.16774248844801903
 0.06462886532883055 0.16774248844799194 0.06462886532882596 0.16774248844800244 0.8877351059386352 -0.38073741209435924 -0.016992836596303924 0.04525243519839323
 0.06462886532882768 0.16774248844800194 0.06462886532882624 0.16774248844801892 -0.016992836596303927 0.045252435198393205 0.8877351059386582 -0.38073741209429424
28000000.0 0.8798899908174889 -0.39486739154015243 -0.01325816570533919 0.05489517971259505 0.06668408744392104 0.16998610591378824 0.06668408744391807 0.16998610591379845
 -0.01325816570533917 0.05489517971259503 0.8798899908175218 -0.39486739154006817 0.06668408744391628 0.16998610591379887 0.0666840874439166 0.16998610591381577
 0.06668408744392099 0.16998610591378813 0.0666840874439163 0.1699861059137989 0.8840180881036434 -0.3864752487285879 -0.017386262991493213 0.046503036901029804
 0.06668408744391803 0.16998610591379834 0.06668408744391659 0.1699861059138157 -0.017386262991493224 0.046503036901029776 0.8840180881036671 -0.38647524872852185
28500000.0 0.8759988206118651 -0.400651281749397 -0.01351182958515091 0.0562631557398236 0.0687565044866386 0.17219406300479642 0.06875650448663556 0.17219406300480689
 -0.013511829585150894 0.056263155739823593 0.8759988206118988 -0.40065128174931164 0.06875650448663373 0.17219406300480736 0.06875650448663409 0.17219406300482462
 0.06875650448663854 0.17219406300479634 0.06875650448663374 0.17219406300480739 0.8802598795842681 -0.3921583483692213 -0.01777288855755334 0.047770222359647105
 0.06875650448663552 0.1721940630048068 0.06875650448663406 0.17219406300482454 -0.017772888557553337 0.04777022235964709 0.8802598795842924 -0.39215834836915436
29000000.0 0.8720661961830891 -0.40637787255634855 -0.013756890583558197 0.05764525073732736 0.07084534720023 0.17436631090952048 0.07084534720022692 0.17436631090953122
 -0.01375689058355819 0.057645250737327354 0.8720661961831242 -0.40637787255626223 0.07084534720022503 0.17436631090953175 0.07084534720022546 0.17436631090954935
 0.07084534720022997 0.17436631090952043 0.07084534720022503 0.17436631090953175 0.8764615354913213 -0.39778643689811766 -0.018152229891789762 0.0490538150790956
 0.07084534720022687 0.1743663109095311 0.07084534720022544 0.1743663109095493 -0.018152229891789766 0.049053815079095585 0.8764615354913466 -0.39778643689804993
29500000.0 0.8680932139599199 -0.412046899003597 -0.013992919497657201 0.059041259584444 0.072949852768864 0.17650281970958653 0.07294985276886086 0.17650281970959758
 -0.013992919497657188 0.059041259584443985 0.8680932139599561 -0.4120468990035095 0.07294985276885893 0.17650281970959814 0.07294985276885939 0.1765028197096161
 0.07294985276886397 0.17650281970958648 0.07294985276885896 0.17650281970959822 0.8726241069051586 -0.4033592643180799 -0.018523812442895127 0.050353624898926024
 0.07294985276886082 0.1765028197095975 0.07294985276885936 0.17650281970961604 -0.01852381244289512 0.050353624898926 0.8726241069051848 -0.4033592643180112
30000000.0 0.8640809658408415 -0.4176581208689941 -0.014219496439735364 0.060450964965750004 0.07506926529944204 0.17860357795163231 0.07506926529943884 0.17860357795164358
 -0.014219496439735363 0.06045096496575 0.8640809658408783 -0.4176581208689055 0.07506926529943685 0.1786035779516442 0.07506926529943737 0.17860357795166248
 0.075069265299442 0.17860357795163226 0.07506926529943685 0.17860357795164422 0.8687486402822625 -0.4088766043465247 -0.018887170881155522 0.05166944844327968
 0.0750692652994388 0.1786035779516435 0.07506926529943735 0.1786035779516624 -0.018887170881155522 0.05166944844327965 0.8687486402822893 -0.40887660434645534
30500000.0 0.8600305385978224 -0.4232113222422255 -0.014436211159584371 0.06187413782509807 0.07720283628087588 0.18066859220857415 0.07720283628087263 0.1806685922085857
 -0.014436211159584364 0.06187413782509806 0.8600305385978605 -0.42321132224213587 0.07720283628087056 0.18066859220858633 0.07720283628087117 0.180668592208605
 0.07720283628087585 0.18066859220857406 0.07720283628087059 0.18066859220858633 0.8648361768844982 -0.4143382539958402 -0.019241849446259594 0.05300106957871193
 0.07720283628087257 0.18066859220858558 0.07720283628087113 0.1806685922086049 -0.019241849446259583 0.0530010695787119 0.8648361768845259 -0.41433825399576996
31000000.0 0.8559430133031332 -0.42870631108852164 -0.014642663344738514 0.06331053782579989 0.07934982502079756 0.1826978866313715 0.07934982502079425 0.18269788663138337
 -0.014642663344738517 0.06331053782579989 0.8559430133031719 -0.428706311088431 0.07934982502079214 0.182697886631384 0.07934982502079281 0.18269788663140304
 0.0793498250207975 0.18269788663137143 0.07934982502079216 0.182697886631384 0.8608877522311416 -0.41974403314157316 -0.019587402272746468 0.05434825987885042
 0.0793498250207942 0.18269788663138328 0.07934982502079276 0.1826978866314029 -0.019587402272746465 0.054348259878850384 0.8608877522311699 -0.41974403314150205
31500000.0 0.8518194647792957 -0.43414291880064854 -0.014838462898747188 0.06475991381589527 0.08150949905972034 0.18469150249238744 0.08150949905971695 0.18469150249239955
 -0.014838462898747172 0.06475991381589527 0.8518194647793359 -0.434142918800557 0.08150949905971486 0.1846915024924003 0.08150949905971554 0.18469150249241964
 0.0815094990597203 0.18469150249238733 0.08150949905971487 0.18469150249240032 0.856904395573731 -0.4250937840795678 -0.019923393693181718 0.055710779094813534
 0.08150949905971691 0.1846915024923994 0.0815094990597155 0.18469150249241953 -0.019923393693181708 0.05571077909481351 0.8569043955737602 -0.42509378407949583
32000000.0 0.8476609610721849 -0.4395209997402911 -0.015023230197638083 0.06622200429747374 0.08368113456272096 0.18664949772141967 0.08368113456271752 0.18664949772143202
 -0.015023230197638078 0.06622200429747373 0.8476609610722263 -0.43952099974019865 0.0836811345627154 0.18664949772143288 0.08368113456271616 0.18664949772145262
 0.08368113456272089 0.18664949772141953 0.08368113456271542 0.1866494977214329 0.8528871293937467 -0.43038737107315916 -0.020249398519199154 0.05708837563034072
 0.08368113456271745 0.1866494977214319 0.08368113456271607 0.18664949772145245 -0.02024939851919915 0.057088375630340686 0.8528871293937766 -0.4303873710730863
32500000.0 0.8434685629472428 -0.44484043076992213 -0.015196596324774915 0.06769653789904324 0.08586401668876023 0.18857194643545058 0.08586401668875672 0.18857194643546327
 -0.01519659632477489 0.06769653789904323 0.8434685629472852 -0.44484043076982865 0.08586401668875457 0.18857194643546413 0.08586401668875536 0.18857194643548417
 0.08586401668876015 0.18857194643545042 0.08586401668875455 0.18857194643546413 0.8488369689230625 -0.43562467989149295 -0.02056500230059383 0.058480787020613004
 0.08586401668875666 0.18857194643546313 0.0858640166887553 0.18857194643548406 -0.02056500230059383 0.05848078702061299 0.8488369689230935 -0.43562467989141934
33000000.0 0.8392433234087306 -0.450101110776223 -0.015358203284356284 0.0691832338499718 0.08805743993780674 0.190458938463137 0.0880574399378032 0.19045893846314996
 -0.015358203284356256 0.06918323384997178 0.8392433234087743 -0.4501011107761287 0.08805743993780098 0.19045893846315082 0.08805743993780185 0.19045893846317125
 0.0880574399378067 0.19045893846313688 0.088057439937801 0.19045893846315085 0.8447549216870716 -0.4408056173400256 -0.0208698015626961 0.059887740413773136
 0.08805743993780316 0.19045893846314982 0.0880574399378018 0.19045893846317113 -0.020869801562696095 0.05988774041377308 0.8447549216871031 -0.4408056173399511
33500000.0 0.8349862872418915 -0.45530296018609595 -0.015507704193844504 0.0706818024560577 0.09026070847597031 0.19231057886503064 0.09026070847596677 0.19231057886504396
 -0.01550770419384449 0.07068180245605767 0.834986287241936 -0.4553029601860007 0.0902607084759645 0.1923105788650449 0.09026070847596544 0.19231057886506567
 0.09026070847597024 0.19231057886503053 0.09026070847596451 0.19231057886504493 0.8406419870703459 -0.44593011078422384 -0.021163404022298223 0.06130895305418449
 0.09026070847596672 0.19231057886504385 0.0902607084759654 0.19231057886506558 -0.02116340402229822 0.06130895305418446 0.8406419870703785 -0.44593011078414874
34000000.0 0.8306984905778503 -0.46044592047627625 -0.015644763455650912 0.07219194557531904 0.0924731364388939 0.1941269874504903 0.09247313643889028 0.19412698745050386
 -0.015644763455650898 0.07219194557531902 0.8306984905778958 -0.46044592047618 0.09247313643888799 0.19412698745050488 0.09247313643888896 0.19412698745052592
 0.09247313643889385 0.1941269874504902 0.09247313643888799 0.19412698745050486 0.8364991559046446 -0.45099810766746085 -0.02144542878244465 0.06274413276650241
 0.09247313643889023 0.19412698745050375 0.09247313643888892 0.1941269874505259 -0.021445428782444657 0.0627441327665024 0.8364991559046779 -0.45099810766738485
34500000.0 0.8263809604810485 -0.4655299536775275 -0.01576905690844053 0.07371335709312692 0.0946940482136894 0.19590829829221212 0.0946940482136858 0.19590829829222606
 -0.015769056908440514 0.0737133570931269 0.8263809604810952 -0.46552995367743033 0.09469404821368341 0.19590829829222708 0.09469404821368452 0.19590829829224857
 0.09469404821368937 0.19590829829221207 0.09469404821368345 0.19590829829222714 0.8323274100790424 -0.4560095750240656 -0.02171550650643369 0.06419297843966394
 0.09469404821368572 0.19590829829222592 0.09469404821368446 0.19590829829224848 -0.021715506506433672 0.0641929784396639 0.8323274100790765 -0.4560095750239891
35000000.0 0.8220347145589586 -0.4705550418743639 -0.015880271958451878 0.07524572339584078 0.09692277869973974 0.1976546592392737 0.09692277869973605 0.19765465923928782
 -0.015880271958451857 0.07524572339584074 0.8220347145590067 -0.47055504187426606 0.09692277869973365 0.19765465923928893 0.09692277869973487 0.19765465923931083
 0.09692277869973968 0.19765465923927356 0.0969227786997337 0.19765465923928902 0.8281277221719193 -0.4609644989884618 -0.021973279571411552 0.06565518050993739
 0.09692277869973599 0.19765465923928766 0.0969227786997348 0.19765465923931066 -0.021973279571411545 0.06565518050993734 0.828127722171954 -0.4609644989883845
35500000.0 0.8176607605938014 -0.4755211867012203 -0.015978107691258896 0.07678872384214311 0.09915867354872178 0.19936623142955082 0.09915867354871802 0.1993662314295652
 -0.015978107691258885 0.07678872384214312 0.8176607605938501 -0.47552118670112115 0.09915867354871556 0.19936623142956636 0.09915867354871684 0.19936623142958862
 0.09915867354872174 0.19936623142955073 0.09915867354871559 0.19936623142956642 0.8239010551045164 -0.46586288430128897 -0.022218402201973016 0.06713042144221062
 0.09915867354871796 0.1993662314295651 0.09915867354871673 0.1993662314295884 -0.022218402201973013 0.06713042144221061 0.8239010551045518 -0.4658628843012107
36000000.0 0.8132600961959446 -0.48042840883594556 -0.0160622749644291 0.07834203123130588 0.10140108938423506 0.20104318880233232 0.10140108938423127 0.20104318880234706
 -0.016062274964429094 0.07834203123130587 0.8132600961959945 -0.48042840883584587 0.10140108938422882 0.20104318880234837 0.1014010893842301 0.2010431888023708
 0.10140108938423502 0.20104318880233224 0.10140108938422883 0.20104318880234834 0.8196483618157253 -0.47070475381337196 -0.022450540584209 0.06861837620873087
 0.1014010893842312 0.20104318880234695 0.10140108938423002 0.20104318880237065 -0.022450540584208974 0.06861837620873083 0.8196483618157617 -0.47070475381329296
36500000.0 0.8088337084786431 -0.4852767474914758 -0.01613249648155834 0.07990531226765817 0.10364939400145007 0.2026857176119215 0.10364939400144625 0.20268571761193652
 -0.01613249648155832 0.07990531226765815 0.8088337084786942 -0.48527674749137517 0.10364939400144371 0.20268571761193782 0.10364939400144513 0.20268571761196066
 0.10364939400145 0.2026857176119214 0.10364939400144375 0.20268571761193788 0.8153705849577558 -0.47549014798836714 -0.022669372960670266 0.0701187127645483
 0.10364939400144621 0.20268571761193643 0.10364939400144507 0.20268571761196055 -0.02266937296067027 0.07011871276454824 0.8153705849577932 -0.47549014798828776
37000000.0 0.8043825737537423 -0.4900662599064913 -0.016188506848185003 0.08147822802056454 0.10590296654721362 0.2042940159429761 0.10590296654720979 0.20429401594299146
 -0.016188506848185 0.08147822802056454 0.8043825737537943 -0.49006625990638975 0.10590296654720721 0.2042940159429928 0.10590296654720872 0.20429401594301605
 0.1059029665472136 0.20429401594297603 0.10590296654720725 0.20429401594299285 0.8110686566122965 -0.48021912440488046 -0.022874589706738502 0.07163109251895249
 0.10590296654720972 0.20429401594299132 0.10590296654720867 0.2042940159430159 -0.0228745897067385 0.07163109251895243 0.8110686566123347 -0.48021912440480025
37500000.0 0.7999076572479441 -0.4947970208358406 -0.016230052610107088 0.0830604343792588 0.10816119768107349 0.205868293228304 0.10816119768106962 0.20586829322831962
 -0.016230052610107047 0.08306043437925878 0.7999076572479976 -0.49479702083573857 0.10816119768106701 0.20586829322832104 0.10816119768106862 0.20586829322834463
 0.10816119768107342 0.20586829322830386 0.10816119768106704 0.20586829322832112 0.8067434980267556 -0.4848917572588114 -0.02306589338891756 0.07315517080222805
 0.10816119768106952 0.20586829322831945 0.10816119768106856 0.20586829322834455 -0.023065893388917548 0.07315517080222804 0.8067434980267947 -0.4848917572587306
38000000.0 0.7954099128392197 -0.49946912204147537 -0.01625689227464328 0.08465158250191808 0.11042348971770367 0.20740876976979192 0.11042348971769969 0.20740876976980774
 -0.016256892274643265 0.08465158250191805 0.7954099128392741 -0.4994691220413725 0.11042348971769717 0.20740876976980938 0.11042348971769879 0.2074087697698332
 0.1104234897177036 0.20740876976979172 0.11042348971769717 0.20740876976980935 0.8023960193701541 -0.48950813686665384 -0.023242998805576762 0.07469059732709502
 0.11042348971769966 0.20740876976980765 0.11042348971769875 0.20740876976983316 -0.02324299880557679 0.07469059732709502 0.8023960193701938 -0.48950813686657224
38500000.0 0.790890282812917 -0.5040826717845954 -0.016268796315395687 0.08625131925839943 0.11268925675123101 0.2089156762631115 0.11268925675122701 0.20891567626312763
 -0.01626879631539567 0.0862513192583994 0.7908902828129725 -0.5040826717844918 0.11268925675122442 0.2089156762631293 0.11268925675122617 0.20891567626315352
 0.11268925675123094 0.2089156762631114 0.11268925675122445 0.2089156762631293 0.7980271195082167 -0.4940683691704333 -0.02340563301069455 0.07623701664423582
 0.11268925675122696 0.2089156762631276 0.11268925675122611 0.2089156762631534 -0.02340563301069456 0.0762370166442358 0.7980271195082571 -0.4940683691703511
39000000.0 0.7863496976371097 -0.508637794319684 -0.016265547161083804 0.08785928766609832 0.11495792476197858 0.21038925332680652 0.11495792476197456 0.210389253326823
 -0.016265547161083808 0.08785928766609831 0.7863496976371662 -0.5086377943195796 0.11495792476197189 0.21038925332682465 0.1149579247619738 0.21038925332684935
 0.11495792476197848 0.2103892533268064 0.11495792476197193 0.2103892533268247 0.793637685797191 -0.4985725752449372 -0.023553535321164273 0.07779406859135003
 0.11495792476197451 0.21038925332682293 0.11495792476197371 0.21038925332684918 -0.023553535321164255 0.07779406859134999 0.7936376857972324 -0.4985725752448543
39500000.0 0.7817890757567028 -0.5131346293910617 -0.016246939169032287 0.08947512731842712 0.11722893170615595 0.21182975103633114 0.11722893170615187 0.21182975103634796
 -0.01624693916903227 0.08947512731842709 0.7817890757567604 -0.5131346293909566 0.1172289317061492 0.21182975103634966 0.11722893170615117 0.2118297510363747
 0.11722893170615584 0.21182975103633098 0.11722893170614924 0.2118297510363497 0.7892285938959084 -0.5030208908078503 -0.023686457308236993 0.07936138873521414
 0.11722893170615183 0.21182975103634785 0.11722893170615112 0.21182975103637458 -0.02368645730823698 0.07936138873521413 0.7892285938959507 -0.5030208908077667
40000000.0 0.7772093234058082 -0.5175733317325641 -0.016212778583902195 0.0910984748054481 0.11950172758903789 0.21323742846357205 0.1195017275890339 0.21323742846358926
 -0.016212778583902146 0.09109847480544807 0.7772093234058673 -0.5175733317324583 0.11950172758903117 0.21323742846359103 0.11950172758903325 0.21323742846361637
 0.11950172758903778 0.21323742846357183 0.11950172758903115 0.21323742846359098 0.7848007075955916 -0.5074134657333795 -0.023804162773684856 0.08093860880626198
 0.11950172758903378 0.21323742846358906 0.11950172758903316 0.21323742846361624 -0.023804162773684866 0.08093860880626197 0.784800707595635 -0.5074134657332955
40500000.0 0.772611334437882 -0.5219540705709045 -0.016162883482264138 0.0927289641262313 0.12177577452218173 0.21461255322235073 0.12177577452217776 0.21461255322236833
 -0.016162883482264124 0.09272896412623129 0.772611334437942 -0.521954070570798 0.12177577452217497 0.21461255322237013 0.1217757745221772 0.21461255322239584
 0.12177577452218165 0.2146125532223506 0.121775774522175 0.21461255322237016 0.7803548786668955 -0.5117504635699106 -0.023906427711276913 0.08252535712523607
 0.1217757745221777 0.2146125532223682 0.12177577452217712 0.21461255322239572 -0.02390642771127691 0.08252535712523602 0.7803548786669396 -0.5117504635698261
41000000.0 0.7679959901731103 -0.5262770291332555 -0.01609708370361583 0.09436622709254563 0.12405054676524312 0.21595540102036934 0.1240505467652391 0.2159554010203872
 -0.01609708370361582 0.09436622709254561 0.7679959901731718 -0.5262770291331484 0.12405054676523627 0.21595540102038904 0.12405054676523863 0.21595540102041522
 0.12405054676524303 0.2159554010203692 0.12405054676523634 0.21595540102038913 0.7758919467236602 -0.5160320610622104 -0.023993040254165002 0.08412125902149893
 0.12405054676523905 0.21595540102038704 0.12405054676523855 0.21595540102041505 -0.023993040254165005 0.0841212590214989 0.7758919467237054 -0.5160320610621253
41500000.0 0.7633641592625237 -0.5305424041595455 -0.016015220768449447 0.09600989372352446 0.12632553075295305 0.21726625521802514 0.12632553075294903 0.21726625521804332
 -0.01601522076844942 0.09600989372352443 0.7633641592625858 -0.5305424041594375 0.12632553075294622 0.2172662552180453 0.12632553075294858 0.21726625521807164
 0.12632553075295294 0.217266255218025 0.1263255307529462 0.2172662552180453 0.7714127391028563 -0.5202584476786484 -0.02406380060878134 0.0857259372426257
 0.12632553075294894 0.21726625521804316 0.12632553075294853 0.21726625521807155 -0.024063800608781348 0.08572593724262567 0.7714127391029021 -0.5202584476785626
42000000.0 0.7587166975683055 -0.5347504054199304 -0.015917147783976845 0.0976595926309827 0.12860022510782554 0.2185454063944886 0.1286002251078215 0.2185454063945071
 -0.01591714778397686 0.09765959263098269 0.758716697568369 -0.5347504054198219 0.12860022510781866 0.21854540639450923 0.1286002251078212 0.218545406394536
 0.12860022510782546 0.21854540639448852 0.1286002251078187 0.21854540639450923 0.7669180707601808 -0.5244298251438854 -0.024118520975850977 0.08733901235493592
 0.12860022510782146 0.218545406394507 0.12860022510782113 0.21854540639453582 -0.024118520975850957 0.08733901235493588 0.766918070760227 -0.5244298251437989
42500000.0 0.7540544480597664 -0.5389012552378757 -0.015802729338119482 0.09931495139509616 0.13087414063916616 0.21979315192140475 0.13087414063916208 0.2197931519214235
 -0.015802729338119458 0.09931495139509616 0.754054448059831 -0.5389012552377666 0.13087414063915925 0.2197931519214257 0.13087414063916192 0.2197931519214528
 0.13087414063916605 0.2197931519214046 0.1308741406391593 0.2197931519214258 0.7624087441807716 -0.5285464069774368 -0.024157025459123682 0.08896010313465567
 0.13087414063916206 0.21979315192142337 0.13087414063916178 0.2197931519214526 -0.024157025459123686 0.08896010313465562 0.7624087441808186 -0.5285464069773498
43000000.0 0.7493782407244417 -0.5429951880192437 -0.015671841382367636 0.10097559693018611 0.1331468003289523 0.22100979554454403 0.13314680032894832 0.22100979554456324
 -0.015671841382367636 0.1009755969301861 0.7493782407245071 -0.5429951880191338 0.13314680032894535 0.2210097955445654 0.1331468003289482 0.22100979554459294
 0.13314680032895224 0.22100979554454397 0.13314680032894538 0.2210097955445654 0.757885549304503 -0.5326084180384929 -0.024179149962428054 0.09058882694943347
 0.13314680032894824 0.22100979554456313 0.1331468003289481 0.22100979554459274 -0.02417914996242806 0.09058882694943342 0.7578855493045513 -0.5326084180384054
43500000.0 0.7446888924937781 -0.547032449787755 -0.015524371104111952 0.10264115584038319 0.1354177393051559 0.22219564697370137 0.13541773930515189 0.22219564697372085
 -0.015524371104111936 0.10264115584038316 0.7446888924938448 -0.5470324497876446 0.13541773930514897 0.22219564697372315 0.13541773930515189 0.22219564697375102
 0.13541773930515585 0.22219564697370128 0.13541773930514903 0.2221956469737232 0.7533492634653153 -0.5366160940773396 -0.024184742075647792 0.0922248001299658
 0.13541773930515177 0.2221956469737207 0.13541773930515177 0.22219564697375077 -0.024184742075647782 0.09222480012996576 0.7533492634653641 -0.5366160940772513
44000000.0 0.7399872071828683 -0.5510132977271587 -0.015360216789043478 0.10431125476497749 0.13768650480307643 0.22335102148110625 0.13768650480307243 0.22335102148112615
 -0.015360216789043472 0.10431125476497748 0.7399872071829363 -0.5510132977270479 0.13768650480306946 0.22335102148112845 0.1376865048030725 0.22335102148115665
 0.13768650480307632 0.22335102148110614 0.1376865048030695 0.2233510214811285 0.7488006513440421 -0.540569681293702 -0.024173660950216697 0.09386763833151898
 0.13768650480307232 0.22335102148112598 0.1376865048030724 0.22335102148115651 -0.024173660950216686 0.09386763833151894 0.7488006513440923 -0.5405696812936134
44500000.0 0.735273975443693 -0.5549379997304215 -0.015179287674214002 0.10598552071328879 0.13995265611524904 0.22447623950858228 0.13995265611524504 0.2244762395086024
 -0.015179287674213993 0.10598552071328879 0.7352739754437622 -0.55493799973031 0.13995265611524207 0.22447623950860485 0.13995265611524532 0.2244762395086334
 0.13995265611524896 0.22447623950858217 0.1399526561152421 0.2244762395086049 0.7442404649342031 -0.5444694359022983 -0.02414577716472328 0.09551695688516391
 0.139952656115245 0.2244762395086023 0.13995265611524516 0.2244762395086332 -0.024145777164723253 0.09551695688516387 0.7442404649342539 -0.5444694359022095
45000000.0 0.7305499747313419 -0.5588068339562119 -0.014981503792340216 0.10766358138892174 0.14221576453048745 0.22557162628366126 0.1422157645304834 0.22557162628368163
 -0.01498150379234021 0.10766358138892174 0.7305499747314119 -0.5588068339560999 0.14221576453048046 0.22557162628368418 0.14221576453048373 0.22557162628371302
 0.14221576453048737 0.22557162628366112 0.14221576453048046 0.22557162628368418 0.7396694435202115 -0.5483156237058606 -0.0241009725812089 0.09717237113856843
 0.14221576453048335 0.22557162628368155 0.14221576453048365 0.22557162628371294 -0.024100972581208892 0.0971723711385684 0.739669443520263 -0.5483156237057709
45500000.0 0.7258159692826742 -0.5626200883929313 -0.014766795807927795 0.10934506550329653 0.14447541326261482 0.22663751144483382 0.14447541326261076 0.22663751144485453
 -0.014766795807927766 0.10934506550329652 0.7258159692827454 -0.5626200883928186 0.1444754132626078 0.22663751144485716 0.14447541326261118 0.2266375114448863
 0.14447541326261468 0.22663751144483363 0.14447541326260782 0.22663751144485716 0.7350883136674838 -0.5521085196758583 -0.024039140192736386 0.09883349678622136
 0.1444754132626107 0.22663751144485442 0.14447541326261107 0.22663751144488617 -0.024039140192736386 0.09883349678622134 0.7350883136675362 -0.5521085196757681
46000000.0 0.7210727101068957 -0.5663780604305154 -0.014535104845781015 0.11102960307837301 0.1467311973694302 0.22767422867608791 0.14673119736942622 0.22767422867610898
 -0.014535104845781003 0.111029603078373 0.7210727101069683 -0.5663780604304025 0.1467311973694233 0.22767422867611176 0.14673119736942677 0.22767422867614118
 0.14673119736943013 0.22767422867608772 0.14673119736942328 0.22767422867611167 0.7304977892239123 -0.5558484075411314 -0.02396018396279635 0.10049995018898673
 0.14673119736942616 0.22767422867610887 0.1467311973694267 0.22767422867614104 -0.023960183962796346 0.10049995018898668 0.7304977892239655 -0.5558484075410407
46500000.0 0.7163209349875304 -0.5700810564402068 -0.014286382312454549 0.11271682573851152 0.14898272366244947 0.2286821153508646 0.14898272366244547 0.22868211535088595
 -0.01428638231245453 0.11271682573851151 0.7163209349876041 -0.5700810564400933 0.1489827236624425 0.22868211535088878 0.1489827236624462 0.22868211535091865
 0.14898272366244936 0.22868211535086444 0.14898272366244253 0.22868211535088886 0.7258985713321868 -0.5595355793846115 -0.023864018657109902 0.10217134868291408
 0.14898272366244542 0.2286821153508859 0.1489827236624461 0.22868211535091856 -0.02386401865710989 0.10217134868291408 0.7258985713322408 -0.5595355793845205
47000000.0 0.7115613684952692 -0.5737293913624675 -0.014020589711191796 0.11440636699143587 0.15122961060794834 0.22966151218553288 0.15122961060794443 0.22966151218555467
 -0.014020589711191784 0.11440636699143583 0.7115613684953439 -0.5737293913623535 0.15122961060794135 0.2296615121855575 0.1512296106079453 0.2296615121855878
 0.15122961060794823 0.2296615121855328 0.15122961060794138 0.22966151218555758 0.7212913484524529 -0.5631703352482874 -0.02375056966837468 0.10384731087725373
 0.15122961060794435 0.22966151218555453 0.1512296106079452 0.2296615121855877 -0.02375056966837467 0.10384731087725366 0.7212913484525082 -0.5631703352481962
47500000.0 0.7067947220111928 -0.5773233883031885 -0.013737698450882877 0.1160978624982904 0.15347148821983184 0.23061276290246635 0.15347148821982795 0.2306127629024885
 -0.013737698450882874 0.11609786249829038 0.7067947220112685 -0.577323388303074 0.15347148821982487 0.23061276290249136 0.15347148821982892 0.230612762902522
 0.15347148821983175 0.2306127629024663 0.1534714882198249 0.23061276290249144 0.7166767963948015 -0.5667529827465503 -0.02361977283449079 0.10552745694165004
 0.1534714882198278 0.2306127629024883 0.1534714882198288 0.23061276290252186 -0.023619772834490776 0.10552745694164999 0.7166767963948576 -0.5667529827464584
48000000.0 0.7020216937598641 -0.5808633781383176 -0.0134376896495624 0.11779095033280024 0.15570799794483564 0.2315362139027762 0.15570799794483176 0.23153621390279866
 -0.013437689649562377 0.11779095033280022 0.7020216937599407 -0.5808633781382025 0.15570799794482865 0.23153621390280163 0.15570799794483287 0.23153621390283258
 0.15570799794483553 0.2315362139027761 0.15570799794482867 0.23153621390280166 0.7120555783610928 -0.5702838366880262 -0.023471574250790064 0.10721140888250677
 0.15570799794483167 0.23153621390279852 0.15570799794483275 0.23153621390283244 -0.02347157425079005 0.10721140888250671 0.7120555783611493 -0.5702838366879339
48500000.0 0.6972429688518046 -0.5843496991270153 -0.01312055393295457 0.11948527122956827 0.1579387925405612 0.23243221394874136 0.1579387925405573 0.2324322139487641
 -0.01312055393295456 0.11948527122956823 0.6972429688518824 -0.5843496991268998 0.15793879254055426 0.23243221394876723 0.15793879254055856 0.23243221394879846
 0.1579387925405611 0.23243221394874125 0.15793879254055426 0.2324322139487672 0.7074283449956318 -0.57376321870599 -0.023305930076780747 0.10889879080854066
 0.1579387925405572 0.23243221394876395 0.15793879254055845 0.23243221394879832 -0.023305930076780744 0.10889879080854063 0.7074283449956892 -0.5737632187058971
49000000.0 0.6924592193348696 -0.587782696533423 -0.012786291228558483 0.12118046882155928 0.16016353594683025 0.23330111385594987 0.1601635359468264 0.2333011138559729
 -0.01278629122855847 0.12118046882155928 0.6924592193349486 -0.5877826965333068 0.16016353594682334 0.23330111385597616 0.1601635359468278 0.2333011138560077
 0.1601635359468301 0.2333011138559497 0.16016353594682334 0.2333011138559761 0.7027957344442172 -0.5771914568974233 -0.02312280633790495 0.11058922918555764
 0.16016353594682636 0.23330111385597282 0.1601635359468277 0.23330111385600757 -0.023122806337904953 0.11058922918555758 0.7027957344442756 -0.5771914568973302
49500000.0 0.6876711042540562 -0.5911627222571081 -0.012434910555753291 0.12287618986684185 0.16238190315083417 0.23414326619515147 0.16238190315083043 0.23414326619517498
 -0.012434910555753267 0.1228761898668418 0.6876711042541361 -0.5911627222569917 0.1623819031508273 0.23414326619517817 0.16238190315083195 0.23414326619521017
 0.16238190315083406 0.23414326619515133 0.16238190315082737 0.2341432661951782 0.6981583724210977 -0.580568885470775 -0.02292217872279377 0.1122823530805062
 0.16238190315083031 0.2341432661951748 0.1623819031508318 0.23414326619520998 -0.022922178722793767 0.11228235308050614 0.6981583724211566 -0.5805688854706811
50000000.0 0.6828792697192771 -0.5944901344722373 -0.012066429812387555 0.12457208446467273 0.1645935800465405 0.23495902500380086 0.1645935800465367 0.23495902500382462
 -0.012066429812387525 0.12457208446467269 0.6828792697193584 -0.5944901344721205 0.16459358004653366 0.23495902500382795 0.1645935800465384 0.23495902500386023
 0.1645935800465404 0.23495902500380073 0.16459358004653368 0.23495902500382798 0.6935168722833808 -0.583895844402446 -0.022704032376490112 0.11397779439487887
 0.16459358004653662 0.23495902500382446 0.16459358004653832 0.23495902500386012 -0.02270403237649013 0.11397779439487885 0.6935168722834407 -0.5838958444023516
50500000.0 0.6780843489806611 -0.5977652972755019 -0.011680875558302708 0.12626780626102918 0.16679826328880576 0.23574874550725508 0.16679826328880212 0.2357487455072792
 -0.011680875558302687 0.12626780626102913 0.6780843489807434 -0.5977652972753849 0.166798263288799 0.23574874550728264 0.16679826328880396 0.23574874550731525
 0.16679826328880568 0.23574874550725497 0.16679826328879904 0.2357487455072827 0.6888718351124541 -0.5871726791020246 -0.022468361690094935 0.1156751880875497
 0.166798263288802 0.2357487455072791 0.1667982632888039 0.23574874550731517 -0.02246836169009491 0.11567518808754965 0.688871835112515 -0.5871726791019303
51000000.0 0.6732869625109301 -0.6009885803428143 -0.011278282796225218 0.12796301264370374 0.16899566014263198 0.23651278384957428 0.16899566014262837 0.23651278384959876
 -0.011278282796225194 0.12796301264370366 0.673286962511014 -0.600988580342697 0.16899566014262532 0.23651278384960234 0.16899566014263043 0.23651278384963526
 0.16899566014263187 0.23651278384957414 0.16899566014262538 0.23651278384960236 0.6842238498019841 -0.5903997400862632 -0.022215170087277834 0.11737417238714998
 0.16899566014262823 0.23651278384959856 0.16899566014263032 0.23651278384963512 -0.02221517008727784 0.11737417238714991 0.6842238498020456 -0.5903997400861681
51500000.0 0.6684877180944397 -0.6041603585947711 -0.010858694750446327 0.12965736492709556 0.1711854883279876 0.23725149683385707 0.17118548832798408 0.23725149683388194
 -0.010858694750446289 0.1296573649270955 0.6684877180945242 -0.6041603585946533 0.17118548832798094 0.23725149683388552 0.17118548832798625 0.2372514968339188
 0.17118548832798747 0.2372514968338569 0.17118548832798097 0.2372514968338855 0.6795734931520729 -0.593577382661779 -0.021944469808078407 0.11907438899410074
 0.17118548832798391 0.2372514968338817 0.1711854883279861 0.23725149683391858 -0.021944469808078418 0.11907438899410067 0.6795734931521353 -0.5935773826616837
52000000.0 0.6636872109224545 -0.6072810118708638 -0.01042216264369343 0.1313505285268402 0.17336747586060336 0.23796524167203134 0.17336747586059997 0.23796524167205657
 -0.01042216264369342 0.13135052852684018 0.6636872109225401 -0.6072810118707458 0.1733674758605968 0.2379652416720602 0.1733674758606024 0.23796524167209385
 0.17336747586060325 0.23796524167203126 0.17336747586059684 0.23796524167206023 0.6749213299691705 -0.5967059666164571 -0.0216562816904085 0.12077548327243093
 0.17336747586059983 0.23796524167205643 0.17336747586060225 0.23796524167209374 -0.02165628169040852 0.12077548327243087 0.674921329969234 -0.5967059666163617
52500000.0 0.6588860236942718 -0.6103509246124114 -0.00996874547258148 0.13304217312443564 0.17554136088913838 0.23865437574400766 0.17554136088913494 0.23865437574403317
 -0.00996874547258146 0.13304217312443561 0.6588860236943587 -0.6103509246122928 0.17554136088913183 0.23865437574403692 0.17554136088913752 0.23865437574407086
 0.17554136088913827 0.23865437574400752 0.17554136088913191 0.23865437574403695 0.6702679131713433 -0.5997858559195037 -0.021350634949651708 0.12247710443152524
 0.17554136088913488 0.23865437574403303 0.1755413608891374 0.23865437574407075 -0.021350634949651726 0.1224771044315252 0.6702679131714074 -0.5997858559194078
53000000.0 0.654084726723792 -0.6133704855541664 -0.009498509782015618 0.13473197282202976 0.17770689152909525 0.23931925636608845 0.17770689152909186 0.23931925636611426
 -0.00949850978201559 0.13473197282202973 0.6540847267238794 -0.6133704855540475 0.17770689152908867 0.23931925636611806 0.17770689152909458 0.23931925636615237
 0.1777068915290951 0.23931925636608836 0.17770689152908872 0.23931925636611812 0.6656137838985174 -0.6028174184300933 -0.021027566956740042 0.124178905697954
 0.17770689152909178 0.23931925636611415 0.17770689152909444 0.2393192563661522 -0.021027566956740035 0.12417890569795394 0.6656137838985823 -0.6028174184299973
53500000.0 0.6492838780511606 -0.6163400874245445 -0.00901152943890346 0.136419606287547 0.17986382569385442 0.23996024056851908 0.17986382569385106 0.2399602405685452
 -0.009011529438903461 0.13641960628754699 0.6492838780512493 -0.6163400874244254 0.17986382569384804 0.2399602405685492 0.17986382569385403 0.23996024056858378
 0.17986382569385434 0.239960240568519 0.17986382569384807 0.23996024056854917 0.6609594716273304 -0.6058010256145504 -0.02068712301507229 0.1258805444775503
 0.179863825693851 0.23996024056854515 0.17986382569385395 0.2399602405685837 -0.020687123015072306 0.12588054447755023 0.6609594716273961 -0.6058010256144537
54000000.0 0.6444840235591246 -0.6192601266544062 -0.008507885405517192 0.13810475689033877 0.18201193092317905 0.24057768488205436 0.18201193092317577 0.2405776848820808
 -0.008507885405517186 0.13810475689033871 0.6444840235592143 -0.6192601266542866 0.1820119309231727 0.2405776848820849 0.1820119309231789 0.24057768488211978
 0.18201193092317888 0.24057768488205417 0.1820119309231727 0.24057768488208486 0.656305494290233 -0.6087370522719773 -0.020329356136624826 0.12758168250790716
 0.18201193092317564 0.2405776848820807 0.18201193092317877 0.2405776848821196 -0.020329356136624833 0.1275816825079071 0.6563054942902995 -0.6087370522718804
54500000.0 0.6396856970937379 -0.6221310030943188 -0.007987665512831161 0.13978711282755124 0.1841509842095289 0.2411719451334046 0.18415098420952572 0.24117194513343143
 -0.007987665512831156 0.1397871128275512 0.6396856970938287 -0.6221310030941988 0.1841509842095227 0.24117194513343557 0.18415098420952905 0.2411719451334708
 0.18415098420952883 0.24117194513340448 0.1841509842095227 0.2411719451334356 0.6516523583984958 -0.6116258762682467 -0.019954326817587985 0.12928198600147645
 0.18415098420952558 0.24117194513343126 0.18415098420952894 0.24117194513347068 -0.019954326817587967 0.1292819860014764 0.6516523583985628 -0.6116258762681492
55000000.0 0.6348894205890883 -0.6249531197402101 -0.007450964234146036 0.1414663672414119 0.18628077182251088 0.2417433762494202 0.18628077182250782 0.24174337624944747
 -0.007450964234146007 0.14146636724141187 0.6348894205891802 -0.6249531197400897 0.18628077182250471 0.2417433762494516 0.18628077182251135 0.24174337624948725
 0.18628077182251074 0.24174337624942008 0.18628077182250471 0.2417433762494516 0.6470005591687908 -0.6144678782782602 -0.019562102813847657 0.1309811257794594
 0.18628077182250774 0.24174337624944725 0.18628077182251124 0.2417433762494871 -0.019562102813847685 0.13098112577945933 0.6470005591688592 -0.6144678782781627
55500000.0 0.6300957041957083 -0.6277268824673202 -0.0068978824592937395 0.14314221832763982 0.18840108913177434 0.24229233206986153 0.18840108913177134 0.24229233206988912
 -0.006897882459293709 0.14314221832763976 0.6300957041958014 -0.6277268824671995 0.1884010891317682 0.2422923320698933 0.18840108913177506 0.24229233206992934
 0.18840108913177422 0.2422923320698614 0.18840108913176826 0.2422923320698934 0.6423505806530325 -0.6172634415363671 -0.01915275891661714 0.13267877739668396
 0.18840108913177125 0.242292332069889 0.18840108913177497 0.24229233206992923 -0.01915275891661713 0.13267877739668393 0.6423505806531019 -0.6172634415362692
56000000.0 0.6253050464123633 -0.6304526997723497 -0.006328527269703883 0.14481436943519424 0.19051174042865154 0.24281916516859942 0.19051174042864866 0.2428191651686273
 -0.006328527269703848 0.1448143694351942 0.6253050464124574 -0.630452699772229 0.19051174042864552 0.2428191651686317 0.1905117404286525 0.24281916516866786
 0.19051174042865138 0.24281916516859925 0.1905117404286455 0.24281916516863164 0.6377028958711672 -0.6200129515948306 -0.01872637672850694 0.13437462125767236
 0.19051174042864852 0.24281916516862714 0.19051174042865243 0.24281916516866775 -0.018726376728506952 0.1343746212576723 0.6377028958712372 -0.6200129515947326
56500000.0 0.6205179342209066 -0.6331309825236943 -0.005743011714596331 0.14648252915757715 0.1926125387468258 0.2433242266830805 0.19261253874682296 0.2433242266831087
 -0.0057430117145962955 0.1464825291575771 0.6205179342210019 -0.6331309825235731 0.19261253874681983 0.24332422668311315 0.19261253874682707 0.24332422668314974
 0.19261253874682563 0.24332422668308035 0.19261253874681988 0.2433242266831132 0.6330579669466204 -0.6227167960902245 -0.018283044440309083 0.13606834272410454
 0.19261253874682283 0.24332422668310857 0.1926125387468269 0.2433242266831496 -0.018283044440309076 0.13606834272410445 0.6330579669466911 -0.6227167960901261
57000000.0 0.6157348432239159 -0.6357621437196486 -0.0051414545885510735 0.148146411415911 0.19470330568229827 0.243807866151891 0.19470330568229555 0.24380786615191957
 -0.005141454588551057 0.14814641141591098 0.6157348432240118 -0.6357621437195272 0.1947033056822924 0.24380786615192407 0.19470330568229985 0.24380786615196096
 0.19470330568229816 0.24380786615189087 0.1947033056822925 0.24380786615192412 0.6284162452441203 -0.6253753645176306 -0.017822856608754736 0.13775963221389026
 0.19470330568229546 0.24380786615191943 0.1947033056822997 0.24380786615196082 -0.017822856608754767 0.1377596322138902 0.6284162452441918 -0.625375364517532
57500000.0 0.6109562377848284 -0.6383465982544605 -0.004523980210691214 0.14980573553401713 0.19678387121291177 0.24427043136024432 0.19678387121290905 0.24427043136027315
 -0.004523980210691208 0.1498057355340171 0.6109562377849255 -0.638346598254339 0.19678387121290597 0.2442704313602777 0.19678387121291366 0.24427043136031498
 0.1967838712129116 0.24427043136024418 0.19678387121290605 0.24427043136027776 0.6237781715096306 -0.6279890480125118 -0.01734591393549258 0.13944818529206546
 0.19678387121290897 0.244270431360273 0.19678387121291352 0.24427043136031473 -0.017345913935492598 0.13944818529206535 0.6237781715097027 -0.6279890480124128
58000000.0 0.6061825711703119 -0.6408847626921067 -0.0038907182057018297 0.15146022630572076 0.19885407351767492 0.24471226819321582 0.19885407351767231 0.24471226819324501
 -0.0038907182057018336 0.1514602263057207 0.6061825711704101 -0.640884762691985 0.1988540735176693 0.24471226819324973 0.19885407351767706 0.2447122681932872
 0.19885407351767478 0.2447122681932157 0.1988540735176693 0.24471226819324968 0.6191441760121299 -0.6305582391401191 -0.01685232304751902 0.14113370275373016
 0.19885407351767218 0.24471226819324485 0.198854073517677 0.24471226819328706 -0.016852323047519054 0.14113370275373008 0.6191441760122032 -0.6305582391400198
58500000.0 0.6014142856946121 -0.6433770550476565 -0.0032418032868930338 0.15310961405461251 0.2009137587961201 0.24513372049654514 0.20091375879611764 0.24513372049657473
 -0.003241803286893019 0.15310961405461246 0.601414285694711 -0.6433770550475346 0.20091375879611453 0.24513372049657947 0.2009137587961226 0.24513372049661727
 0.20091375879611995 0.245133720496545 0.20091375879611456 0.2451337204965795 0.6145146786869999 -0.6330833316922978 -0.016342196279280095 0.14281589069925077
 0.2009137587961175 0.24513372049657453 0.20091375879612244 0.2451337204966171 -0.016342196279280095 0.1428158906992507 0.6145146786870737 -0.6330833316921984
59000000.0 0.5966518128656326 -0.6458238945760928 -0.002577375041502225 0.15475363468649717 0.2029627810879139 0.2455351299448214 0.20296278108791152 0.2455351299448513
 -0.0025773750415021787 0.1547536346864971 0.5966518128657332 -0.6458238945759709 0.20296278108790855 0.24553512994485613 0.20296278108791674 0.2455351299448943
 0.20296278108791377 0.24553512994482124 0.2029627810879086 0.2455351299448562 0.609890089280781 -0.6355647204915474 -0.015815651456649378 0.14449446060194832
 0.20296278108791138 0.24553512994485108 0.20296278108791663 0.24553512994489413 -0.01581565145664936 0.1444944606019483 0.6098900892808555 -0.6355647204914475
59500000.0 0.59189557353252 -0.6482257015684459 -0.0018975777184181198 0.15639202973476024 0.20500100209292785 0.2459168359168668 0.2050010020929256 0.24591683591689706
 -0.0018975777184180847 0.15639202973476019 0.5918955735326215 -0.6482257015683239 0.20500100209292255 0.24591683591690194 0.20500100209293098 0.24591683591694033
 0.20500100209292765 0.24591683591686658 0.20500100209292257 0.24591683591690194 0.6052708074970778 -0.6380028012021866 -0.015272811682974835 0.14616912936849744
 0.20500100209292543 0.2459168359168968 0.20500100209293085 0.24591683591694025 -0.01527281168297482 0.14616912936849735 0.6052708074971532 -0.6380028012020865
60000000.0 0.5871459780345227 -0.6505828971551015 -0.0012025600184957573 0.15802454639888597 0.2070282909919651 0.2462791753781319 0.20702829099196296 0.24627917537816246
 -0.0012025600184957406 0.1580245463988859 0.5871459780346246 -0.6505828971549791 0.20702829099196 0.24627917537816751 0.20702829099196862 0.24627917537820615
 0.20702829099196496 0.24627917537813174 0.20702829099195996 0.24627917537816746 0.6006572231434025 -0.6403979701484801 -0.014713805127374758 0.1478396193922613
 0.20702829099196282 0.24627917537816227 0.2070282909919685 0.246279175378206 -0.014713805127374767 0.1478396193922613 0.6006572231434786 -0.6403979701483801
60500000.0 0.5824034263509201 -0.6528959031161351 -0.0004924748876192427 0.15965093757635707 0.20904452426832765 0.24662248276991347 0.20904452426832554 0.24662248276994433
 -0.0004924748876192354 0.15965093757635698 0.5824034263510236 -0.6528959031160125 0.20904452426832257 0.24662248276994947 0.20904452426833142 0.24662248276998858
 0.2090445242683275 0.24662248276991336 0.20904452426832268 0.24662248276994955 0.5960497162787511 -0.6427506241395698 -0.014138764815449225 0.1495056585997882
 0.20904452426832543 0.2466224827699442 0.2090445242683313 0.24662248276998838 -0.014138764815449251 0.1495056585997881 0.5960497162788281 -0.6427506241394692
61000000.0 0.5776683082518208 -0.6551651416985309 0.00023252068734235152 0.16127096188816797 0.21104958553039618 0.2469470899052062 0.2110495855303943 0.24694708990523742
 0.00023252068734237844 0.16127096188816792 0.577668308251925 -0.655165141698408 0.2110495855303912 0.24694708990524253 0.2110495855304004 0.2469470899052819
 0.21104958553039602 0.24694708990520603 0.21104958553039124 0.24694708990524256 0.5914486573617272 -0.6450611603010595 -0.013547828422563295 0.15116698049069344
 0.21104958553039416 0.24694708990523723 0.2110495855304003 0.2469470899052818 -0.0135478284225633 0.15116698049069335 0.5914486573618051 -0.6450611603009592
61500000.0 0.5729410034496303 -0.657391035440129 0.0009722658795525281 0.16288438369818223 0.21304336533538598 0.24725332587099846 0.21304336533538415 0.2472533258710301
 0.0009722658795525379 0.16288438369818217 0.5729410034497355 -0.6573910354400063 0.2130433653353812 0.24725332587103524 0.21304336533539062 0.24725332587107496
 0.21304336533538581 0.2472533258709983 0.2130433653353813 0.24725332587103532 0.5868544073990294 -0.6473299759131039 -0.012941138069845912 0.15282332417115363
 0.21304336533538407 0.24725332587102994 0.21304336533539045 0.24725332587107482 -0.012941138069845912 0.15282332417115352 0.5868544073991082 -0.647329975913003
62000000.0 0.5682218817510198 -0.6595740070001602 0.0017265962200760409 0.16449097312656233 0.215025761014429 0.24754151693682439 0.21502576101442727 0.24754151693685622
 0.0017265962200760838 0.1644909731265623 0.5682218817511261 -0.6595740070000371 0.21502576101442436 0.24754151693686163 0.21502576101443388 0.2475415169369015
 0.21502576101442883 0.24754151693682422 0.21502576101442436 0.24754151693686158 0.5822673180941336 -0.6495574682548362 -0.012318840123036797 0.1544744343812347
 0.2150257610144272 0.24754151693685614 0.21502576101443374 0.24754151693690135 -0.012318840123036821 0.15447443438123462 0.5822673180942128 -0.6495574682547349
62500000.0 0.5635113032092157 -0.6617144789962093 0.0024953437924881638 0.16609050605749928 0.2169966764991247 0.24781198646938066 0.2169966764991231 0.24781198646941288
 0.002495343792488168 0.16609050605749925 0.5635113032093227 -0.6617144789960859 0.21699667649912024 0.24781198646941835 0.21699667649912996 0.2478119864694585
 0.21699667649912452 0.2478119864693805 0.21699667649912022 0.2478119864694183 0.5776877319960081 -0.6517440344549912 -0.01168108499430345 0.15612006151627758
 0.21699667649912302 0.24781198646941277 0.2169966764991298 0.2478119864694584 -0.011681084994303453 0.15612006151627755 0.5776877319960882 -0.6517440344548898
63000000.0 0.5588096182764499 -0.6638128738474612 0.003278337424121688 0.16768276414146666 0.21895602214969034 0.2480650548530232 0.218956022149689 0.2480650548530558
 0.003278337424121708 0.16768276414146663 0.5588096182765582 -0.6638128738473378 0.2189560221496861 0.24806505485306138 0.21895602214969617 0.24806505485310187
 0.21895602214969026 0.24806505485302308 0.21895602214968612 0.24806505485306138 0.5731159826477119 -0.6538900713485586 -0.011028026947139552 0.15775996164256065
 0.21895602214968882 0.24806505485305563 0.21895602214969595 0.24806505485310174 -0.011028026947139554 0.1577599616425606 0.5731159826477927 -0.6538900713484572
63500000.0 0.5541171679564207 -0.6658696136240774 0.004075402873863485 0.16926753479222198 0.2209037145848337 0.248301039415954 0.22090371458483243 0.24830103941598694
 0.004075402873863497 0.16926753479222195 0.5541171679565301 -0.6658696136239539 0.22090371458482952 0.24830103941599252 0.2209037145848398 0.24830103941603332
 0.22090371458483354 0.2483010394159538 0.22090371458482952 0.24830103941599246 0.568552394734731 -0.6559959753393173 -0.010359823904445878 0.15939389650745842
 0.2209037145848323 0.24830103941598675 0.22090371458483965 0.2483010394160332 -0.010359823904445892 0.15939389650745836 0.5685523947348128 -0.6559959753392158
64000000.0 0.5494342839566169 -0.6678851199025493 0.0048863630164171015 0.1708446111787747 0.22283967651345857 0.24852025436191388 0.22283967651345735 0.24852025436194716
 0.004886363016417121 0.1708446111787746 0.5494342839567269 -0.6678851199024256 0.22283967651345454 0.24852025436195282 0.22283967651346503 0.24852025436199396
 0.2228396765134584 0.2485202543619138 0.22283967651345457 0.24852025436195285 0.5639972842329203 -0.6580621422680903 -0.009676637259885637 0.16102163354431218
 0.2228396765134572 0.24852025436194702 0.2228396765134649 0.24852025436199385 -0.00967663725988565 0.16102163354431212 0.5639972842330029 -0.6580621422679885
64500000.0 0.5447612888403683 -0.66985981362688 0.005711038022960987 0.17241379221253755 0.22476383656831037 0.24872301070719813 0.22476383656830937 0.24872301070723177
 0.0057110380229609655 0.17241379221253753 0.5447612888404794 -0.6698598136267563 0.22476383656830654 0.24872301070723754 0.22476383656831725 0.24872301070727895
 0.22476383656831028 0.2487230107071981 0.22476383656830673 0.24872301070723762 0.5594509585559262 -0.6600889672865716 -0.008978631692595924 0.16264294587222541
 0.22476383656830923 0.24872301070723166 0.2247638365683171 0.24872301070727879 -0.008978631692595905 0.16264294587222533 0.559450958556009 -0.6600889672864694
65000000.0 0.5400984961785006 -0.671794114975444 0.006549245538138949 0.17397488252987578 0.2266761291416549 0.24890961622281133 0.22667612914165403 0.2489096162228453
 0.006549245538138995 0.17397488252987575 0.5400984961786125 -0.67179411497532 0.2266761291416511 0.248909616222851 0.22667612914166213 0.2489096162228927
 0.22667612914165472 0.24890961622281116 0.2266761291416512 0.24890961622285107 0.5549137167019688 -0.6620768447365675 -0.008265974985328422 0.16425761229099578
 0.2266761291416539 0.24890961622284516 0.22667612914166205 0.24890961622289268 -0.008265974985328432 0.16425761229099575 0.5549137167020529 -0.6620768447364654
65500000.0 0.5354462107004666 -0.6736884432333723 0.007400800853328516 0.17552769247026215 0.22857649422307674 0.24908037538158265 0.22857649422307602 0.24908037538161687
 0.007400800853328525 0.17552769247026212 0.5354462107005793 -0.6736884432332481 0.22857649422307316 0.24908037538162278 0.2285764942230844 0.24908037538166475
 0.2285764942230766 0.24908037538158254 0.22857649422307316 0.24908037538162275 0.5503858493998807 -0.6640261680345035 -0.0075388378460848485 0.16586541727138987
 0.22857649422307588 0.2490803753816167 0.22857649422308426 0.2490803753816646 -0.007538837846084847 0.16586541727138981 0.5503858493999654 -0.6640261680344015
66000000.0 0.5308047284448482 -0.6755432166703201 0.008265517076140967 0.17707203805024607 0.2304648772394794 0.249235589310065 0.23046487723947875 0.2492355893100996
 0.008265517076141 0.17707203805024602 0.5308047284449622 -0.675543216670196 0.23046487723947595 0.2492355893101055 0.2304648772394875 0.24923558931014786
 0.23046487723947923 0.24923558931006484 0.230464877239476 0.24923558931010553 0.5458676392542914 -0.6659373295610427 -0.006797393733301851 0.16746615094096493
 0.23046487723947862 0.24923558931009943 0.23046487723948728 0.2492355893101477 -0.0067973937333018685 0.16746615094096484 0.545867639254377 -0.6659373295609402
66500000.0 0.5261743369091197 -0.6773588524234653 0.009143205296114981 0.17860774093343829 0.23234122889735614 0.24937555574504178 0.2323412288973556 0.24937555574507667
 0.009143205296114986 0.1786077409334382 0.5261743369092345 -0.6773588524233409 0.23234122889735284 0.2493755557450827 0.23234122889736453 0.2493755557451253
 0.23234122889735592 0.24937555574504164 0.23234122889735292 0.24937555574508274 0.5413593608898706 -0.6678107205556697 -0.006041818684635193 0.16905960906563908
 0.23234122889735548 0.2493755557450765 0.23234122889736444 0.24937555574512515 -0.006041818684635167 0.16905960906563908 0.5413593608899568 -0.6678107205555671
67000000.0 0.5215553151985781 -0.6791357663855936 0.010033674746572515 0.18013462839671032 0.23420550502739776 0.24950056899447035 0.23420550502739743 0.24950056899450562
 0.010033674746572527 0.18013462839671024 0.5215553151986939 -0.6791357663854695 0.23420550502739473 0.24950056899451167 0.23420550502740659 0.24950056899455447
 0.23420550502739756 0.24950056899447026 0.2342055050273948 0.24950056899451176 0.5368612810945347 -0.669646731016093 -0.005272291149383071 0.17064559302720578
 0.23420550502739731 0.24950056899450548 0.23420550502740647 0.2495005689945544 -0.005272291149383096 0.17064559302720575 0.5368612810946216 -0.66964673101599
67500000.0 0.5169479341743441 -0.6808743730981293 0.010936732962613152 0.18165253329280157 0.23605766643149423 0.24961091990269288 0.236057666431494 0.2496109199027284
 0.010936732962613159 0.1816525332928015 0.5169479341744606 -0.680874373098005 0.23605766643149137 0.24961091990273457 0.23605766643150355 0.24961091990277767
 0.23605766643149406 0.2496109199026927 0.23605766643149143 0.24961091990273457 0.5323736589615411 -0.6714457496023174 -0.004488991824583229 0.17222390979698568
 0.23605766643149384 0.24961091990272818 0.23605766643150333 0.24961091990277748 -0.00448899182458319 0.17222390979698562 0.5323736589616287 -0.6714457496022143
68000000.0 0.5123524566003529 -0.6825750856489633 0.011852185935230101 0.1831612940095259 0.23789767873218093 0.24970689581974811 0.23789767873218087 0.2497068958197839
 0.011852185935230125 0.18316129400952585 0.5123524566004704 -0.6825750856488391 0.2378976787321783 0.24970689581979022 0.23789767873219062 0.24970689581983352
 0.23789767873218076 0.24970689581974792 0.2378976787321783 0.24970689581979022 0.5278967460303928 -0.6732081635452472 -0.0036921034948093857 0.17379437190580574
 0.23789767873218073 0.2497068958197838 0.2378976787321905 0.24970689581983346 -0.0036921034948094135 0.1737943719058057 0.5278967460304813 -0.6732081635451439
68500000.0 0.5077691372892554 -0.6842383155749467 0.012779838261536787 0.18466075442576224 0.23972551222457578 0.24978878057462214 0.23972551222457603 0.24978878057465834
 0.012779838261536813 0.18466075442576216 0.5077691372893739 -0.6842383155748226 0.23972551222457325 0.2497887805746646 0.23972551222458602 0.24978878057470824
 0.23972551222457567 0.24978878057462203 0.23972551222457336 0.24978878057466467 0.5234307864264817 -0.6749343585596782 -0.0028818108756885636 0.17535679741048973
 0.2397255122245759 0.24978878057465814 0.23972551222458593 0.2497887805747081 -0.0028818108756885545 0.17535679741048965 0.5234307864265708 -0.6749343585595754
69000000.0 0.5031982232471556 -0.6858644727689046 0.013719493291099288 0.18615076386441054 0.24154114173084418 0.24985685445227715 0.24154114173084446 0.2498568544523136
 0.0137194932910993 0.18615076386441054 0.503198223247275 -0.6858644727687802 0.24154114173084193 0.24985685445232014 0.2415411417308548 0.24985685445236394
 0.2415411417308441 0.24985685445227704 0.241541141730842 0.24985685445232014 0.518976016999408 -0.6766247187615388 -0.0020583004611524304 0.17691100985704086
 0.24154114173084432 0.24985685445231345 0.2415411417308547 0.24985685445236383 -0.0020583004611524473 0.17691100985704078 0.5189760169994977 -0.6766247187614354
69500000.0 0.4986399538171152 -0.687453965391036 0.014670953268375727 0.18763117704249027 0.2433445464572257 0.24991139417430333 0.24334454645722625 0.24991139417434022
 0.014670953268375746 0.18763117704249024 0.4986399538172355 -0.6874539653909114 0.24334454645722353 0.24991139417434666 0.24334454645723683 0.24991139417439087
 0.24334454645722556 0.24991139417430328 0.24334454645722361 0.24991139417434674 0.5145326674599233 -0.6782796265892435 -0.0012217603744318847 0.17845683824069386
 0.2433445464572261 0.24991139417434008 0.24334454645723666 0.2499113941743907 -0.0012217603744318953 0.17845683824069375 0.5145326674600141 -0.6782796265891403
70000000.0 0.49409456082136993 -0.6890071997845721 0.01563401947126907 0.1891018540185531 0.24513570985365138 0.24995267288304043 0.2451357098536519 0.2499526728830775
 0.01563401947126906 0.18910185401855306 0.4940945608214909 -0.6890071997844477 0.2451357098536494 0.24995267288308412 0.24513570985366287 0.24995267288312853
 0.24513570985365116 0.24995267288304027 0.24513570985364946 0.24995267288308404 0.5101009605154363 -0.6798994627290315 -0.00037238022279675507 0.1799941169630083
 0.24513570985365185 0.24995267288307735 0.24513570985366273 0.24995267288312834 -0.00037238022279676754 0.17999411696300827 0.5101009605155276 -0.6798994627289281
70500000.0 0.4895622687021922 -0.6905245803955521 0.01660849234580479 0.19056266013757722 0.24691461947597187 0.2499809601290187 0.2469146194759727 0.24998096012905613
 0.016608492345804825 0.19056266013757717 0.4895622687023142 -0.6905245803954274 0.24691461947597013 0.24998096012906273 0.24691461947598384 0.24998096012910742
 0.24691461947597176 0.24998096012901863 0.24691461947597027 0.24998096012906285 0.5056811120040362 -0.6814846060441494 0.0004896490439616497 0.18152268578617048
 0.24691461947597257 0.2499809601290559 0.24691461947598367 0.2499809601291072 0.0004896490439616861 0.18152268578617037 0.5056811120041278 -0.6814846060440459
71000000.0 0.4850432946613568 -0.6920065096965945 0.017594171636949613 0.19201346597350624 0.24868126685081676 0.24999652186157567 0.24868126685081776 0.24999652186161347
 0.01759417163694962 0.19201346597350624 0.4850432946614798 -0.6920065096964699 0.2486812668508153 0.24999652186162025 0.24868126685082928 0.2499965218616652
 0.24868126685081662 0.2499965218615756 0.24868126685081532 0.24999652186162033 0.5012733310269948 -0.6830354335077602 0.001364135271312166 0.18304238978466783
 0.24868126685081768 0.24999652186161334 0.24868126685082906 0.24999652186166504 0.0013641352713121885 0.18304238978466772 0.5012733310270875 -0.6830354335076566
71500000.0 0.4805378487981548 -0.6934533881145366 0.018590856515591843 0.19345414726959084 0.2504356473430963 0.24999962042250484 0.2504356473430974 0.24999962042254295
 0.018590856515591843 0.1934541472695908 0.4805378487982787 -0.6934533881144118 0.25043564734309504 0.24999962042254983 0.25043564734310925 0.249999620422595
 0.25043564734309615 0.2499996204225047 0.2504356473430951 0.24999962042254983 0.4968778200797049 -0.6845523201394451 0.0022508852340421214 0.18455307929449502
 0.2504356473430973 0.24999962042254276 0.250435647343109 0.24999962042259485 0.0022508852340421197 0.18455307929449496 0.4968778200797983 -0.6845523201393413
72000000.0 0.47604613424591874 -0.694865613961816 0.019598345701708892 0.1948845848766862 0.25217776002615533 0.24999051454259727 0.2521777600261566 0.2499905145426357
 0.019598345701708892 0.1948845848766862 0.47604613424604353 -0.6948656139616914 0.2521777600261543 0.24999051454264257 0.2521777600261687 0.24999051454268803
 0.25217776002615516 0.24999051454259721 0.25217776002615433 0.2499905145426426 0.4924947751810195 -0.6860356389451797 0.0031497047666086807 0.18605460986004568
 0.2521777600261565 0.24999051454263554 0.2521777600261685 0.24999051454268784 0.0031497047666086886 0.18605460986004557 0.49249477518111356 -0.6860356389450757
72500000.0 0.47156834730701774 -0.6962435833714754 0.020616437583750195 0.19630466468965477 0.2539076075545848 0.24996945934094317 0.25390760755458625 0.2499694593409818
 0.02061643758375022 0.19630466468965468 0.4715683473071434 -0.696243583371351 0.253907607554584 0.2499694593409889 0.2539076075545987 0.24996945934103443
 0.2539076075545846 0.24996945934094295 0.253907607554584 0.2499694593409888 0.4881243860009643 -0.6874857608606649 0.004060398889804087 0.18754684217883988
 0.25390760755458613 0.2499694593409816 0.25390760755459857 0.24996945934103434 0.004060398889804081 0.1875468421788399 0.488124386001059 -0.6874857608605611
73000000.0 0.4671046775862879 -0.6975876902356704 0.021644930334268384 0.19771427758201646 0.25562519603969025 0.2499367063268602 0.25562519603969197 0.24993670632689916
 0.02164493033426839 0.19771427758201637 0.4671046775864142 -0.6975876902355456 0.25562519603968953 0.2499367063269062 0.2556251960397045 0.24993670632695206
 0.25562519603969003 0.2499367063268601 0.25562519603968964 0.24993670632690623 0.48376683598679865 -0.6889030546978915 0.004982771933758218 0.1890296420442334
 0.25562519603969186 0.24993670632689902 0.2556251960397044 0.24993670632695197 0.004982771933758191 0.1890296420442333 0.4837668359868941 -0.6889030546977877
73500000.0 0.46265530812286865 -0.6988983261475655 0.0226836220218345 0.1991133193389887 0.2573305349276163 0.24989250340432193 0.2573305349276181 0.24989250340436123
 0.02268362202183451 0.1991133193389887 0.46265530812299593 -0.6988983261474411 0.2573305349276159 0.2498925034043683 0.25733053492763125 0.2498925034044146
 0.25733053492761615 0.24989250340432184 0.2573305349276159 0.24989250340436833 0.4794223024873958 -0.69028788709483 0.0059166276573079405 0.1905028802862487
 0.2573305349276181 0.24989250340436114 0.25733053492763097 0.2498925034044144 0.005916627657307923 0.19050288028624862 0.479422302487492 -0.6902878870947258
74000000.0 0.45822041552041787 -0.7001758803465054 0.023732310719276523 0.20050169058904813 0.2590236368801203 0.24983709487876254 0.2590236368801223 0.24983709487880212
 0.023732310719276516 0.20050169058904807 0.4582204155205458 -0.7001758803463808 0.25902363688012014 0.24983709487880934 0.2590236368801357 0.2498370948788557
 0.2590236368801202 0.24983709487876246 0.25902363688012026 0.24983709487880934 0.47509095687593184 -0.691640622468128 0.006861769363763028 0.19196643271066643
 0.25902363688012214 0.2498370948788019 0.25902363688013547 0.24983709487885558 0.0068617693637630294 0.19196643271066632 0.47509095687602865 -0.6916406224680237
74500000.0 0.4538001700756791 -0.7014207396663478 0.0247907946082831 0.20187929673414523 0.2607045176579861 0.24977072146613574 0.2607045176579882 0.2497707214661756
 0.02479079460828313 0.20187929673414515 0.4538001700758077 -0.7014207396662232 0.260704517657986 0.24977072146618282 0.2607045176580018 0.24977072146622947
 0.26070451765798586 0.2497707214661356 0.26070451765798613 0.24977072146618282 0.4707729646708586 -0.6929616229687136 0.007818000013104075 0.19342018003650643
 0.2607045176579881 0.24977072146617538 0.2607045176580016 0.24977072146622933 0.007818000013104062 0.19342018003650635 0.470772964670956 -0.6929616229686092
75000000.0 0.4493947359053855 -0.7026332884868556 0.025858872080417088 0.20324604787869804 0.2623731960070655 0.24969362030411352 0.2623731960070679 0.24969362030415373
 0.025858872080417112 0.20324604787869796 0.4493947359055151 -0.7026332884867311 0.2623731960070657 0.24969362030416098 0.2623731960070817 0.24969362030420786
 0.2623731960070654 0.24969362030411343 0.26237319600706577 0.24969362030416103 0.46646848565515403 -0.6942512484401916 0.008785122330649112 0.1948640078320295
 0.26237319600706765 0.24969362030415354 0.26237319600708164 0.24969362030420778 0.008785122330649077 0.19486400783202942 0.4664684856552522 -0.6942512484400872
75500000.0 0.4450042710714789 -0.7038139086880357 0.026936341834585684 0.20460185875748507 0.264029693546934 0.2496060249653104 0.2640296935469367 0.24960602496535098
 0.026936341834585698 0.20460185875748504 0.4450042710716092 -0.703813908687911 0.26402969354693445 0.24960602496535825 0.26402969354695077 0.24960602496540546
 0.26402969354693384 0.24960602496531026 0.2640296935469344 0.2496060249653582 0.4621776739938358 -0.6955098563799358 0.009762938912229025 0.1962978064493807
 0.2640296935469364 0.24960602496535073 0.2640296935469506 0.2496060249654052 0.009762938912229062 0.19629780644938055 0.4621776739939349 -0.6955098563798314
76000000.0 0.44062892770463047 -0.7049629796073298 0.02802300297101788 0.20594664866255485 0.2656740346621416 0.249508165472423 0.26567403466214445 0.24950816547246374
 0.028023002971017875 0.2059466486625548 0.4406289277047619 -0.7049629796072053 0.2656740346621424 0.2495081654724713 0.26567403466215905 0.2495081654725186
 0.2656740346621415 0.24950816547242294 0.2656740346621424 0.24950816547247126 0.4579006783497343 -0.6967378019027746 0.01075125232591443 0.19772147095799517
 0.2656740346621443 0.24950816547246363 0.26567403466215883 0.2495081654725185 0.0107512523259144 0.19772147095799508 0.4579006783498339 -0.6967378019026703
76500000.0 0.4362688521260524 -0.7060808779995501 0.029118655081798537 0.20728034136926288 0.26730624639604 0.24940026831517972 0.267306246396043 0.2494002683152208
 0.029118655081798537 0.20728034136926285 0.4362688521261846 -0.706080877999426 0.26730624639604106 0.24940026831522832 0.2673062463960578 0.24940026831527584
 0.26730624639603984 0.2494002683151796 0.26730624639604095 0.24940026831522824 0.4536376419975137 -0.6979354377071726 0.011749865210337647 0.19913490107688075
 0.26730624639604283 0.2494002683152206 0.2673062463960577 0.24940026831527573 0.01174986521033762 0.19913490107688075 0.4536376419976139 -0.6979354377070681
77000000.0 0.4319241849675894 -0.7071679779994675 0.03022309833801441 0.20860286506154588 0.2689263583471632 0.24928255646899738 0.2689263583471664 0.24928255646903866
 0.03022309833801438 0.20860286506154582 0.4319241849677222 -0.7071679779993432 0.2689263583471644 0.2492825564690463 0.26892635834718154 0.24928255646909409
 0.268926358347163 0.2492825564689972 0.26892635834716444 0.2492825564690463 0.4493887029359467 -0.6991031140438135 0.012758580369657435 0.2005380011058872
 0.2689263583471662 0.2492825564690385 0.26892635834718137 0.2492825564690939 0.012758580369657425 0.20053800110588718 0.44938870293604743 -0.6991031140437093
77500000.0 0.4275950612900844 -0.7082246510869546 0.0313361335735658 0.20991415225653554 0.2705344025681396 0.24915524941524644 0.270534402568143 0.24915524941528797
 0.031336133573565794 0.2099141522565355 0.4275950612902179 -0.7082246510868302 0.270534402568141 0.24915524941529577 0.2705344025681584 0.2491552494153437
 0.2705344025681395 0.24915524941524636 0.27053440256814104 0.24915524941529574 0.445153993998436 -0.7002411786864948 0.01377720086521436 0.20193067985607127
 0.2705344025681429 0.24915524941528788 0.2705344025681583 0.24915524941534362 0.013777200865214285 0.20193067985607122 0.44515399399853756 -0.7002411786863905
78000000.0 0.4232816107000129 -0.7092512660545932 0.03245756236570048 0.211214139728612 0.27213041346710753 0.24901856316302792 0.2721304134671111 0.2490185631630698
 0.03245756236570048 0.21121413972861197 0.4232816107001475 -0.7092512660544691 0.2721304134671092 0.24901856316307755 0.27213041346712696 0.24901856316312582
 0.27213041346710737 0.24901856316302784 0.2721304134671093 0.2490185631630776 0.4409336429617869 -0.7013499769052428 0.014805530103926868 0.20331285057925702
 0.272130413467111 0.2490185631630697 0.27213041346712674 0.24901856316312565 0.01480553010392687 0.20331285057925688 0.440933642961889 -0.7013499769051385
78500000.0 0.4189839574643852 -0.7102481889776558 0.03358718711232794 0.2125027684329913 0.2737144277116072 0.24887271027236996 0.2737144277116109 0.24887271027241215
 0.033587187112327964 0.21250276843299126 0.4189839574645207 -0.7102481889775318 0.2737144277116091 0.24887271027241992 0.2737144277116271 0.24887271027246846
 0.273714427711607 0.24887271027236985 0.27371442771160914 0.24887271027241997 0.4367277726532331 -0.7024298514415617 0.01584337192348043 0.20468443089689234
 0.27371442771161086 0.24887271027241195 0.27371442771162685 0.2488727102724682 0.01584337192348042 0.20468443089689228 0.4367277726533358 -0.7024298514414572
79000000.0 0.41470222062391243 -0.7112157831863736 0.03472481110617276 0.21377998342893972 0.27528648413492085 0.24871789987875512 0.27528648413492485 0.24871789987879758
 0.03472481110617275 0.21377998342893967 0.4147022206240484 -0.7112157831862496 0.27528648413492296 0.24871789987880544 0.27528648413494133 0.24871789987885415
 0.27528648413492074 0.24871789987875498 0.275286484134923 0.24871789987880538 0.43253650105572367 -0.7034811424857345 0.01689053067436149 0.20604534272829586
 0.27528648413492474 0.24871789987879747 0.27528648413494117 0.248717899878854 0.01689053067436147 0.2060453427282958 0.43253650105582736 -0.70348114248563
79500000.0 0.41043651410443915 -0.7121544092404074 0.03587023860582671 0.21504573380270123 0.2768466236448301 0.24855433771889177 0.27684662364483426 0.24855433771893445
 0.03587023860582672 0.21504573380270117 0.41043651410457616 -0.7121544092402836 0.27684662364483253 0.24855433771894248 0.276846623644851 0.24855433771899127
 0.2768466236448298 0.24855433771889163 0.27684662364483253 0.24855433771894248 0.4283599414114742 -0.7045041876560945 0.017946811298791963 0.20739551221838348
 0.2768466236448341 0.24855433771893434 0.27684662364485085 0.2485543377189911 0.01794681129879195 0.20739551221838337 0.428359941411578 -0.7045041876559901
80000000.0 0.4061869468266501 -0.7130644249054394 0.03702327490376042 0.21629997259022188 0.2783948891347573 0.24838222615764774 0.2783948891347617 0.24838222615769076
 0.03702327490376044 0.21629997259022185 0.40618694682678785 -0.7130644249053153 0.2783948891347599 0.2483822261576988 0.27839488913477883 0.24838222615774794
 0.27839488913475713 0.24838222615764763 0.2783948891347599 0.24838222615769878 0.42419820232379296 -0.7054993219801866 0.019012019406617786 0.20873486966496438
 0.27839488913476146 0.24838222615769062 0.27839488913477856 0.24838222615774777 0.01901201940661773 0.20873486966496427 0.4241982023238977 -0.7054993219800819
80500000.0 0.4019536228140461 -0.7139461851318031 0.038183726391356615 0.21754265669975134 0.27993132539726073 0.24820176421606538 0.27993132539726545 0.2482017642161087
 0.038183726391356594 0.2175426566997513 0.40195362281418456 -0.7139461851316794 0.27993132539726373 0.2482017642161168 0.27993132539728277 0.24820176421616613
 0.2799313253972606 0.2482017642160653 0.2799313253972638 0.2482017642161168 0.42005138785719354 -0.7064668778777439 0.02008596134820939 0.21006334944568722
 0.27993132539726523 0.24820176421610854 0.2799313253972826 0.2482017642161659 0.020085961348209388 0.21006334944568708 0.4200513878572988 -0.7064668778776394
81000000.0 0.39773664129920344 -0.7148000420350801 0.03935140062102594 0.21877374683439663 0.28145597903984704 0.24801314760038173 0.28145597903985187 0.24801314760042537
 0.03935140062102595 0.21877374683439657 0.39773664129934255 -0.7148000420349564 0.28145597903985015 0.24801314760043341 0.2814559790398696 0.24801314760048296
 0.2814559790398468 0.2480131476003816 0.2814559790398502 0.24801314760043341 0.4159195976358 -0.7074071851454068 0.021168444284429645 0.21138088994471832
 0.28145597903985176 0.2480131476004252 0.2814559790398694 0.24801314760048276 0.021168444284429624 0.21138088994471824 0.4159195976359061 -0.7074071851453024
81500000.0 0.39353609682832064 -0.7156263448785817 0.040526106365469 0.2199932074147017 0.2829688984030665 0.24781656873198024 0.28296889840307154 0.24781656873202407
 0.04052610636546899 0.2199932074147017 0.3935360968284606 -0.715626344878458 0.28296889840306994 0.2478165687320323 0.2829688984030896 0.24781656873208202
 0.2829688984030664 0.2478165687319802 0.28296889840307 0.24781656873203237 0.41180292694006215 -0.7083205709431113 0.022259276253727606 0.21268743347922678
 0.2829688984030715 0.24781656873202396 0.2829688984030895 0.24781656873208188 0.022259276253727568 0.21268743347922672 0.4118029269401688 -0.7083205709430069
82000000.0 0.38935207936406085 -0.7164254400576461 0.04170765367414647 0.22120100650132152 0.2844701334808574 0.24761221677820322 0.28447013348086253 0.24761221677824732
 0.0417076536741465 0.22120100650132143 0.38935207936420135 -0.7164254400575225 0.28447013348086103 0.24761221677825557 0.28447013348088096 0.2476122167783055
 0.28447013348085715 0.247612216778203 0.284470133480861 0.2476122167782555 0.4077014668017916 -0.7092073597820798 0.02335826623641559 0.21398292622575005
 0.28447013348086236 0.24761221677824713 0.28447013348088074 0.2476122167783054 0.023358266236415605 0.21398292622574996 0.40770146680189884 -0.7092073597819751
82500000.0 0.38518467438670123 -0.7171976710856844 0.04289585392702141 0.22239711571785506 0.2859597358430992 0.24740027768395595 0.28595973584310463 0.2474002776840004
 0.04289585392702141 0.22239711571785498 0.38518467438684256 -0.717197671085561 0.28595973584310314 0.24740027768400866 0.2859597358431234 0.2474002776840588
 0.285959735843099 0.2474002776839559 0.28595973584310325 0.2474002776840087 0.4036153040975337 -0.7100678735143432 0.024465224216188863 0.21526731814650882
 0.2859597358431045 0.2474002776840003 0.2859597358431232 0.24740027768405873 0.024465224216188852 0.21526731814650873 0.4036153040976418 -0.7100678735142386
83000000.0 0.38103396299360054 -0.7179433785818964 0.04409051988563558 0.22358151017390163 0.28743775856034204 0.2471809342040392 0.2874377585603476 0.24718093420408374
 0.0440905198856356 0.22358151017390154 0.3810339629937426 -0.717943378581773 0.28743775856034637 0.24718093420409226 0.28743775856036674 0.24718093420414242
 0.28743775856034176 0.24718093420403897 0.28743775856034637 0.2471809342040922 0.3995445216402905 -0.7109024313237382 0.02557996123894577 0.2165405629157383
 0.2874377585603475 0.24718093420408363 0.2874377585603665 0.24718093420414233 0.025579961238945705 0.21654056291573825 0.39954452164039883 -0.7109024313236335
83500000.0 0.3769000219969936 -0.7186629002606023 0.04529146574158483 0.2247541683883979 0.28890425613067044 0.24695436593614448 0.2889042561306764 0.2469543659361895
 0.045291465741584845 0.2247541683883978 0.37690002199713646 -0.7186629002604791 0.28890425613067494 0.24695436593619788 0.28890425613069576 0.24695436593624842
 0.2889042561306703 0.2469543659361444 0.28890425613067505 0.24695436593619793 0.3954891982696102 -0.7117113497183079 0.02670228946896804 0.21780261784609825
 0.28890425613067616 0.24695436593618936 0.28890425613069554 0.2469543659362483 0.02670228946896802 0.21780261784609817 0.39548919826971946 -0.7117113497182032
84000000.0 0.37278292402012936 -0.7193565709221181 0.04649850716245515 0.2259150722132914 0.29035928440866704 0.24672074935445593 0.29035928440867315 0.24672074935450114
 0.04649850716245514 0.2259150722132914 0.3727829240202729 -0.719356570921995 0.2903592844086718 0.2467207493545096 0.29035928440869285 0.24672074935456034
 0.2903592844086669 0.2467207493544559 0.29035928440867176 0.24672074935450958 0.3914494089400639 -0.7124949425240533 0.02783202224252051 0.2190534438152215
 0.29035928440867304 0.24672074935450108 0.29035928440869263 0.2467207493545602 0.027832022242520463 0.2190534438152214 0.39144940894017366 -0.7124949425239486
84500000.0 0.36868273759176584 -0.7200247224451143 0.04771146133528259 0.2270642067576055 0.2918029005364345 0.2464802578437975 0.29180290053644087 0.24648025784384303
 0.04771146133528261 0.2270642067576055 0.3686827375919101 -0.7200247224449914 0.29180290053643954 0.24648025784385147 0.29180290053646096 0.24648025784390248
 0.2918029005364344 0.24648025784379746 0.2918029005364396 0.24648025784385155 0.38742522480812036 -0.7132535208799726 0.028968974118928074 0.2202930051924588
 0.2918029005364407 0.2464802578438429 0.29180290053646074 0.24648025784390235 0.028968974118928046 0.2202930051924587 0.3874252248082308 -0.713253520879868
85000000.0 0.3645995272390327 -0.7206676837804011 0.04893014700760199 0.2282015603119424 0.293235162876641 0.24623306173427298 0.29323516287664764 0.2462330617343187
 0.04893014700760199 0.2282015603119424 0.3645995272391779 -0.720667683780278 0.29323516287664625 0.24623306173432732 0.293235162876668 0.24623306173437842
 0.29323516287664075 0.24623306173427287 0.2932351628766463 0.2462330617343273 0.3834167133174432 -0.7139873932343367 0.03011296092919166 0.22152126976587294
 0.29323516287664747 0.24623306173431855 0.2932351628766677 0.24623306173437817 0.030112960929191624 0.22152126976587286 0.38341671331755406 -0.7139873932342323
85500000.0 0.36053335357868144 -0.7212857809460768 0.050154384526143285 0.22932712427347418 0.29465613094754556 0.24597932833634545 0.2946561309475523 0.24597932833639138
 0.05015438452614335 0.22932712427347415 0.36053335357882726 -0.721285780945954 0.29465613094755105 0.2459793283364 0.2946561309475729 0.24597932833645125
 0.29465613094754534 0.24597932833634528 0.2946561309475511 0.24597932833640002 0.3794239382826261 -0.7146968653421415 0.031263799822198714 0.22273820866953375
 0.2946561309475521 0.24597932833639122 0.2946561309475728 0.24597932833645111 0.03126379982219872 0.22273820866953375 0.37942393828273757 -0.714696865342037
86000000.0 0.35648427340673605 -0.7218793370239879 0.05138399587324118 0.23044089307146512 0.296065865359969 0.24571922197630608 0.2960658653599759 0.24571922197635224
 0.051383995873241155 0.2304408930714651 0.3564842734068825 -0.7218793370238652 0.2960658653599748 0.245719221976361 0.296065865359997 0.24571922197641244
 0.2960658653599688 0.24571922197630594 0.2960658653599748 0.245719221976361 0.37544695997138666 -0.7153822402636913 0.03242130930859042 0.22394379631116326
 0.2960658653599758 0.2457192219763521 0.2960658653599969 0.24571922197641224 0.03242130930859036 0.22394379631116315 0.3754469599714988 -0.715382240263587
86500000.0 0.3524523397865612 -0.7224486721574435 0.05261880470101718 0.23154286409336558 0.2974644277561678 0.24545290403208406 0.29746442775617504 0.2454529040321305
 0.05261880470101714 0.2315428640933655 0.3524523397867084 -0.7224486721573206 0.297464427756174 0.24545290403213943 0.2974644277561964 0.24545290403219094
 0.2974644277561677 0.24545290403208392 0.2974644277561741 0.24545290403213932 0.37148583518523776 -0.716043818364257 0.03358530930234075 0.22513801030017386
 0.29746442775617493 0.24545290403213033 0.2974644277561962 0.24545290403219075 0.03358530930234072 0.2251380103001738 0.37148583518535033 -0.7160438183641527
87000000.0 0.34843760213536656 -0.722994103550132 0.05385863636339736 0.23263303761151916 0.29885188075057467 0.24518053296935216 0.29885188075058217 0.24518053296939873
 0.05385863636339741 0.23263303761151907 0.3484376021355146 -0.7229941035500098 0.29885188075058117 0.24518053296940767 0.29885188075060387 0.24518053296945946
 0.2988518807505745 0.24518053296935197 0.2988518807505813 0.24518053296940773 0.36754061733865445 -0.7166818973147655 0.034755621160109516 0.22632083137614714
 0.29885188075058194 0.2451805329693986 0.29885188075060376 0.24518053296945938 0.034755621160109496 0.226320831376147 0.3675406173387677 -0.716681897314661
87500000.0 0.34444010630916055 -0.7235159454661919 0.055103317946024494 0.23371141671051673 0.3002282878723637 0.24490226437788373 0.3002282878723715 0.24490226437793075
 0.0551033179460245 0.2337114167105166 0.34444010630930916 -0.7235159454660697 0.3002282878723704 0.24490226437793955 0.3002282878723935 0.24490226437799154
 0.30022828787236355 0.24490226437788362 0.30022828787237055 0.24490226437793958 0.36361135653676224 -0.7172967720934702 0.03593206771842265 0.22749224333778933
 0.30022828787237127 0.24490226437793053 0.30022828787239325 0.2449022643779914 0.035932067718422625 0.22749224333778925 0.36361135653687615 -0.7172967720933657
88000000.0 0.340459894686176 -0.7240145092313828 0.05635267829412626 0.23477800721523392 0.3015937135098047 0.24461825100812098 0.3015937135098126 0.24461825100816822
 0.05635267829412629 0.23477800721523387 0.34045989468632537 -0.7240145092312605 0.3015937135098117 0.2446182510081771 0.30159371350983505 0.24461825100822934
 0.30159371350980446 0.24461825100812082 0.3015937135098117 0.24461825100817713 0.3596980996515612 -0.7178887349885599 0.03711447332874088 0.2286522329724055
 0.30159371350981246 0.24461825100816809 0.30159371350983477 0.2446182510082292 0.0371144733287409 0.2286522329724054 0.3596980996516758 -0.7178887349884554
88500000.0 0.33649700624878376 -0.7244901032353128 0.05760654803839762 0.23583281761958166 0.3029482228563647 0.2443286428079128 0.30294822285637285 0.2443286428079603
 0.05760654803839765 0.23583281761958158 0.33649700624893364 -0.7244901032351909 0.302948222856372 0.2443286428079693 0.30294822285639555 0.24432864280802155
 0.3029482228563645 0.24432864280791267 0.302948222856372 0.2443286428079693 0.3558008903967099 -0.7184580756016615 0.038302663890471274 0.22980078998592463
 0.30294822285637263 0.24432864280796 0.3029482228563954 0.24432864280802138 0.03830266389047126 0.22980078998592457 0.3558008903968249 -0.7184580756015572
89000000.0 0.3325514766639106 -0.724943032934678 0.0588647596189575 0.23687585901600086 0.30429188185852096 0.24403358695938623 0.3042918818585293 0.24403358695943375
 0.0588647596189575 0.23687585901600083 0.3325514766640611 -0.724943032934556 0.3042918818585285 0.2440335869594429 0.3042918818585524 0.24403358695949526
 0.3042918818585208 0.244033586959386 0.3042918818585285 0.24403358695944277 0.35191976940088926 -0.7190050808521962 0.03949646688197877 0.2309379069335134
 0.3042918818585292 0.24403358695943367 0.30429188185855216 0.24403358695949517 0.03949646688197874 0.23093790693351338 0.35191976940100467 -0.7190050808520917
89500000.0 0.3286233383619852 -0.7253736008574623 0.06012714730743541 0.23790714502572802 0.30562475716524434 0.24373322791591523 0.30562475716525295 0.24373322791596314
 0.060127147307435416 0.23790714502572796 0.32862333836213625 -0.7253736008573405 0.30562475716525206 0.24373322791597224 0.3056247571652764 0.2437332279160249
 0.3056247571652441 0.2437332279159151 0.30562475716525217 0.24373322791597218 0.34805477427976705 -0.719530034982546 0.04069571138965331 0.23206357915080614
 0.3056247571652528 0.24373322791596294 0.30562475716527615 0.24373322791602473 0.04069571138965329 0.23206357915080608 0.3480547742798832 -0.7195300349824417
90000000.0 0.3247126206144262 -0.7257821066080647 0.06139354722724821 0.23892669172985603 0.306946916079117 0.243427707439153 0.3069469160791258 0.24342770743920117
 0.061393547227248206 0.23892669172985595 0.32471262061457795 -0.7257821066079432 0.30694691607912505 0.24342770743921027 0.30694691607914965 0.2434277074392631
 0.3069469160791168 0.24342770743915282 0.3069469160791252 0.24342770743921024 0.34420593970658675 -0.7200332195639971 0.04190022813508746 0.23317780468578256
 0.30694691607912566 0.24342770743920092 0.3069469160791494 0.24342770743926292 0.041900228135087425 0.2331778046857825 0.3442059397067034 -0.7200332195638929
90500000.0 0.3208193496096937 -0.7261688468733067 0.06266379737212104 0.23993451760121573 0.30825842650904633 0.2431171646360944 0.3082584265090554 0.24311716463614283
 0.06266379737212105 0.23993451760121573 0.32081934960984626 -0.7261688468731852 0.30825842650905483 0.24311716463615207 0.30825842650907964 0.24311716463620497
 0.30825842650904617 0.24311716463609437 0.30825842650905483 0.2431171646361521 0.34037329748139544 -0.7205149135034171 0.04310984950041897 0.2342805842313208
 0.3082584265090553 0.24311716463614277 0.3082584265090794 0.24311716463620492 0.043109849500418934 0.23428058423132067 0.34037329748151274 -0.720514913503313
91000000.0 0.316943548527925 -0.7265341154292785 0.06393773762290815 0.2409306434370968 0.30955935692453673 0.24280173599614027 0.3095593569245461 0.24280173599618893
 0.0639377376229081 0.2409306434370967 0.31694354852807827 -0.7265341154291571 0.3095593569245454 0.2428017359961982 0.30955935692457054 0.24280173599625135
 0.30955935692453657 0.2428017359961403 0.3095593569245455 0.24280173599619825 0.336556876598941 -0.7209753930506358 0.04432440955189174 0.2353719210584488
 0.30955935692454606 0.2428017359961889 0.3095593569245703 0.2428017359962512 0.04432440955189171 0.2353719210584487 0.3365568765990588 -0.7209753930505318
91500000.0 0.3130852376141695 -0.7268782031489929 0.0652152097627701 0.2419150922928292 0.31084977631148303 0.2424815554281321 0.3108497763114927 0.242481555428181
 0.0652152097627701 0.24191509229282906 0.31308523761432333 -0.726878203148872 0.3108497763114921 0.24248155542819022 0.3108497763115175 0.24248155542824348
 0.3108497763114828 0.2424815554281319 0.3108497763114922 0.24248155542819022 0.3327567033152506 -0.7214149318064902 0.04554374406168859 0.23645182095032075
 0.3108497763114926 0.2424815554281808 0.3108497763115174 0.24248155542824337 0.04554374406168854 0.23645182095032066 0.3327567033153693 -0.7214149318063862
92000000.0 0.3092444342502486 -0.7272013980108032 0.06649605749075897 0.2428878894162422 0.31212975412944866 0.24215675429733122 0.3121297541294586 0.24215675429738032
 0.06649605749075899 0.24288788941624212 0.3092444342504031 -0.7272013980106823 0.3121297541294581 0.24215675429738967 0.3121297541294837 0.24215675429744313
 0.31212975412944843 0.24215675429733105 0.312129754129458 0.24215675429738967 0.32897280121292005 -0.7218338007315033 0.04676769052808696 0.2375202921369366
 0.3121297541294583 0.24215675429738007 0.31212975412948357 0.242156754297443 0.04676769052808698 0.23752029213693654 0.328972801213039 -0.7218338007313996
92500000.0 0.3054211530252532 -0.7275039851075503 0.06778012643386565 0.24384906218301736 0.31339936027039256 0.2418274614623176 0.3133993602704027 0.24182746146236686
 0.06778012643386565 0.24384906218301733 0.3054211530254082 -0.7275039851074295 0.3133993602704023 0.24182746146237638 0.3133993602704282 0.2418274614624298
 0.3133993602703924 0.2418274614623175 0.31339936027040227 0.24182746146237633 0.3252051912651274 -0.7222322681551671 0.047996088193990726 0.23857734523062857
 0.3133993602704026 0.24182746146236683 0.31339936027042803 0.2418274614624298 0.047996088193990746 0.23857734523062854 0.32520519126524694 -0.7222322681550634
93000000.0 0.3016154058047051 -0.7277862466564081 0.06906726415758034 0.2447986400329493 0.31465866501880885 0.24149380331178114 0.31465866501881923 0.2414938033118306
 0.06906726415758033 0.24479864003294924 0.30161540580486085 -0.7277862466562871 0.3146586650188188 0.24149380331184017 0.31465866501884504 0.24149380331189382
 0.3146586650188088 0.24149380331178102 0.31465866501881884 0.24149380331184014 0.3214538918983986 -0.7226105997857938 0.04922877806388649 0.23962299316232935
 0.31465866501881906 0.24149380331183046 0.3146586650188448 0.24149380331189366 0.04922877806388639 0.23962299316232924 0.3214538918985183 -0.72261059978569
93500000.0 0.297827201798397 -0.72804846200939 0.07035732017501896 0.24573665440712625 0.31590773901324326 0.24115590380118415 0.3159077390132537 0.24115590380123383
 0.07035732017501894 0.24573665440712616 0.29782720179855343 -0.7280484620092696 0.3159077390132535 0.24115590380124333 0.3159077390132799 0.24115590380129717
 0.315907739013243 0.24115590380118399 0.3159077390132535 0.2411559038012433 0.31771891905413985 -0.7229690587209092 0.05046560291927578 0.2406572511186397
 0.31590773901325353 0.24115590380123367 0.3159077390132797 0.24115590380129703 0.050465602919275765 0.24065725111863964 0.3177189190542602 -0.7229690587208054
94000000.0 0.29405654762693284 -0.7282909076644873 0.07165014595466285 0.24666313868604461 0.31714665320915286 0.2408138844892742 0.31714665320916363 0.24081388448932414
 0.07165014595466286 0.2466631386860445 0.29405654762708994 -0.7282909076643671 0.3171466532091634 0.24081388448933372 0.3171466532091901 0.24081388448938768
 0.31714665320915264 0.24081388448927407 0.3171466532091634 0.24081388448933375 0.31400028624896337 -0.7233079054581615 0.0517064073326318 0.24168013647971295
 0.31714665320916346 0.24081388448932392 0.31714665320919 0.2408138844893876 0.0517064073326318 0.24168013647971287 0.3140002862490845 -0.7233079054580579
94500000.0 0.2903034473869887 -0.7285138572774064 0.0729455949267637 0.24757812812866292 0.3183754788430741 0.24046786457442498 0.3183754788430853 0.2404678645744753
 0.07294559492676368 0.24757812812866284 0.29030344738714625 -0.7285138572772862 0.31837547884308504 0.24046786457448482 0.3183754788431121 0.24046786457453903
 0.318375478843074 0.24046786457442493 0.3183754788430851 0.24046786457448482 0.31029800463382373 -0.7236273979067149 0.052951037679927905 0.2426916687579656
 0.31837547884308515 0.24046786457447505 0.318375478843112 0.24046786457453892 0.05295103767992789 0.24269166875796552 0.3102980046339455 -0.7236273979066115
95000000.0 0.2865679027153107 -0.7287175816738752 0.07424352248845936 0.24848165981240783 0.31959428739806495 0.2401179609307875 0.3195942873980762 0.24011796093083795
 0.07424352248845931 0.24848165981240777 0.2865679027154689 -0.7287175816737553 0.3195942873980761 0.24011796093084764 0.31959428739810347 0.2401179609309019
 0.3195942873980647 0.2401179609307874 0.3195942873980761 0.24011796093084756 0.3066120830519835 -0.7239277913991033 0.05419934215178579 0.24369186953763006
 0.319594287398076 0.2401179609308378 0.31959428739810325 0.24011796093090176 0.0541993421517857 0.24369186953762995 0.30661208305210574 -0.7239277913989997
95500000.0 0.28284991285147537 -0.7289023488624934 0.07554378600764929 0.24937377257413643 0.3208031505703873 0.23976428814423292 0.32080315057039877 0.23976428814428355
 0.07554378600764926 0.2493737725741363 0.28284991285163424 -0.7289023488623737 0.3208031505703986 0.23976428814429324 0.32080315057042624 0.2397642881443476
 0.320803150570387 0.23976428814423284 0.32080315057039865 0.23976428814429324 0.3029425280958344 -0.7242093387035212 0.05545117076328979 0.2446807624151582
 0.3208031505703986 0.23976428814428344 0.320803150570426 0.23976428814434744 0.05545117076328975 0.24468076241515807 0.3029425280959568 -0.7242093387034176
96000000.0 0.27914947469942436 -0.7290684240480929 0.07684624482567554 0.2502545069520619 0.32200214023739926 0.2394069585480705 0.322002140237411 0.23940695854812136
 0.07684624482567551 0.2502545069520618 0.2791494746995837 -0.7290684240479733 0.3220021402374109 0.23940695854813107 0.32200214023743895 0.2394069585481857
 0.32200214023739904 0.23940695854807043 0.322002140237411 0.23940695854813107 0.2992893441625868 -0.7244722900365236 0.056706375362512336 0.2456583729404864
 0.32200214023741086 0.23940695854812122 0.3220021402374387 0.2394069585481855 0.05670637536251233 0.24565837294048634 0.29928934416270997 -0.7244722900364202
96500000.0 0.27546658288779835 -0.729216069645588 0.07815076025885333 0.25112390512864735 0.3231913284266228 0.23904608225852575 0.3231913284266349 0.23904608225857682
 0.07815076025885333 0.2511239051286473 0.2754665828879585 -0.7292160696454686 0.32319132842663484 0.23904608225858653 0.3231913284266632 0.23904608225864135
 0.3231913284266226 0.23904608225852567 0.3231913284266349 0.2390460822585866 0.29565253350885595 -0.7247168930761159 0.057964809637794996 0.24662472855916928
 0.3231913284266347 0.23904608225857665 0.32319132842666287 0.23904608225864113 0.05796480963779495 0.2466247285591692 0.29565253350897974 -0.7247168930760125
97000000.0 0.27180122982908816 -0.7293455452942842 0.07945719559889709 0.2519820108744711 0.32437078728595575 0.23868176720996262 0.324370787285968 0.23868176721001383
 0.07945719559889712 0.2519820108744711 0.2718012298292488 -0.7293455452941647 0.324370787285968 0.23868176721002368 0.32437078728599666 0.23868176721007844
 0.3243707872859556 0.23868176720996254 0.3243707872859681 0.23868176721002365 0.2920320963041551 -0.7249433929752098 0.05922632912382939 0.24757985855539083
 0.3243707872859678 0.23868176721001366 0.3243707872859963 0.23868176721007833 0.05922632912382934 0.24757985855539066 0.29203209630427923 -0.7249433929751063
97500000.0 0.2681534057776194 -0.7294571078726256 0.0807654161122834 0.2528288694930652 0.3255405890549965 0.23831411918983686 0.32554058905500904 0.23831411918988826
 0.08076541611228336 0.25282886949306516 0.2681534057777804 -0.7294571078725065 0.3255405890550091 0.23831411918989817 0.32554058905503797 0.23831411918995307
 0.3255405890549962 0.23831411918983672 0.3255405890550091 0.23831411918989806 0.2884280306833221 -0.725152032375423 0.06049079120657993 0.24852379399585672
 0.32554058905500877 0.23831411918988807 0.3255405890550377 0.23831411918995293 0.06049079120657988 0.24852379399585653 0.2884280306834468 -0.7251520323753199
98000000.0 0.26452309888639447 -0.7295510115133543 0.0820752890385944 0.25366452776673065 0.326700806037453 0.23794324187336904 0.3267008060374657 0.2379432418734207
 0.08207528903859443 0.25366452776673054 0.2645230988865563 -0.7295510115132354 0.326700806037466 0.23794324187343066 0.3267008060374951 0.23794324187348564
 0.3267008060374528 0.2379432418733689 0.326700806037466 0.23794324187343063 0.2848403327978971 -0.7253430514212049 0.061758055127090934 0.24945656767457514
 0.3267008060374655 0.23794324187342045 0.32670080603749485 0.23794324187348556 0.06175805512709092 0.24945656767457508 0.28484033279802234 -0.7253430514211019
98500000.0 0.2609102952628048 -0.7296275076190579 0.08338668358788268 0.25448903390332683 0.3278515105746033 0.23756923685792314 0.3278515105746163 0.23756923685797499
 0.08338668358788275 0.2544890339033268 0.2609102952629671 -0.729627507618939 0.32785151057461664 0.23756923685798495 0.3278515105746459 0.23756923685804007
 0.3278515105746031 0.23756923685792306 0.32785151057461664 0.23756923685798492 0.28126899686646767 -0.7255166877742658 0.06302798198421891 0.2503782140585286
 0.32785151057461615 0.23756923685797485 0.32785151057464573 0.23756923685804004 0.06302798198421887 0.2503782140585285 0.2812689968665934 -0.7255166877741626
99000000.0 0.257314979023238 -0.7296868448780857 0.08469947093709615 0.2553024374840382 0.3289927750197795 0.237192203697082 0.32899277501979285 0.2371922036971341
 0.08469947093709614 0.25530243748403814 0.25731497902340084 -0.7296868448779672 0.32899277501979307 0.237192203697144 0.3289927750198228 0.23719220369719934
 0.32899277501977936 0.23719220369708197 0.3289927750197932 0.23719220369714406 0.27771401522400424 -0.7256731766282926 0.06430043473632895 0.2512887692342391
 0.32899277501979274 0.23719220369713395 0.3289927750198226 0.23719220369719923 0.06430043473632889 0.25128876923423893 0.2777140152241305 -0.7256731766281896
99500000.0 0.25373713234659273 -0.7297292692808123 0.08601352422560524 0.2561047894121134 0.3301246717138473 0.23681223993440814 0.3301246717138609 0.23681223993446035
 0.08601352422560518 0.25610478941211323 0.25373713234675616 -0.729729269280694 0.3301246717138611 0.23681223993447043 0.33012467171389104 0.2368122399345258
 0.33012467171384696 0.23681223993440806 0.33012467171386123 0.2368122399344705 0.2741753783702 -0.7258127507239347 0.06557527820199695 0.2521882708552299
 0.3301246717138606 0.23681223993446032 0.33012467171389087 0.23681223993452577 0.06557527820199696 0.25218827085522977 0.2741753783703265 -0.7258127507238319
100000000.0 0.2501767355267244 -0.7297550241362242 0.08732871854986703 0.25689614186257764 0.3312472729616501 0.23642944113688255 0.33124727296166384 0.23642944113693506
 0.08732871854986703 0.2568961418625776 0.2501767355268885 -0.729755024136106 0.3312472729616643 0.23642944113694508 0.33124727296169454 0.23642944113700062
 0.3312472729616498 0.23642944113688247 0.3312472729616643 0.2364294411369451 0.2706530750168377 -0.7259356403640378 0.06685237905975269 0.2530767580903853
 0.33124727296166373 0.23642944113693493 0.3312472729616944 0.23642944113700048 0.06685237905975269 0.25307675809038527 0.27065307501696506 -0.7259356403639353
100500000.0 0.24663376702383563 -0.7297643500888146 0.08864493095726796 0.2576765482329137 0.33236065100939344 0.2360439009280103 0.33236065100940765 0.23604390092806302
 0.08864493095726794 0.25767654823291364 0.2466337670240005 -0.7297643500886967 0.33236065100940815 0.23604390092807315 0.3323606510094385 0.2360439009281287
 0.33236065100939327 0.23604390092801023 0.33236065100940815 0.23604390092807312 0.26714709213419907 -0.7260420734291136 0.06813160584690371 0.25395427157320666
 0.33236065100940737 0.2360439009280628 0.3323606510094384 0.23604390092812863 0.0681316058469037 0.25395427157320655 0.2671470921343267 -0.726042073429011
101000000.0 0.2431082035148332 -0.7297574851357643 0.08996204043917616 0.25844606309470813 0.3334648780229403 0.23565571102058858 0.33346487802295477 0.23565571102064142
 0.08996204043917612 0.258446063094708 0.24310820351499848 -0.7297574851356465 0.3334648780229552 0.2356557110206516 0.33346487802298597 0.23565571102070743
 0.3334648780229401 0.23565571102058852 0.33346487802295527 0.23565571102065155 0.2636574149965334 -0.7261322753930277 0.06941282895747491 0.2548208533519653
 0.33346487802295444 0.23565571102064126 0.3334648780229858 0.2356557110207072 0.06941282895747491 0.25482085335196525 0.26365741499666157 -0.7261322753929252
101500000.0 0.23960001994266483 -0.7297346646443912 0.09127992792324378 0.2592047421462586 0.33456002606699015 0.2352649612491273 0.33456002606700486 0.23526496124918037
 0.09127992792324377 0.25920474214625855 0.23960001994283056 -0.7297346646442735 0.33456002606700536 0.23526496124919052 0.3345600260670365 0.2352649612492464
 0.33456002606699 0.23526496124912716 0.3345600260670054 0.2352649612491905 0.26018402722660705 -0.726206469338891 0.07069592063930054 0.25567654684075236
 0.3345600260670047 0.2352649612491801 0.3345600260670363 0.23526496124924617 0.07069592063930051 0.2556765468407522 0.26018402722673567 -0.7262064693387887
102000000.0 0.23610918956465785 -0.7296961213698514 0.09259847626499118 0.2599526421661385 0.33564616708511963 0.23487173960191798 0.3356461670851345 0.2348717396019712
 0.09259847626499107 0.25995264216613834 0.2361091895648242 -0.7296961213697339 0.33564616708513506 0.2348717396019815 0.3356461670851664 0.23487173960203747
 0.33564616708511935 0.234871739601918 0.33564616708513517 0.23487173960198154 0.2567269108393455 -0.7262648759751398 0.07198075499030245 0.25652139677142105
 0.33564616708513434 0.23487173960197105 0.3356461670851663 0.2348717396020374 0.0719807549903024 0.25652139677142094 0.25672691083947474 -0.7262648759750377
102500000.0 0.232635683999874 -0.7296420854730739 0.09391757023870577 0.26068982096770954 0.3367233728806537 0.23447613225274433 0.33672337288066895 0.23447613225279776
 0.09391757023870577 0.26068982096770943 0.23263568400004095 -0.7296420854729567 0.33672337288066956 0.23447613225280803 0.3367233728807013 0.23447613225286415
 0.3367233728806535 0.23447613225274427 0.3367233728806696 0.23447613225280808 0.25328604628459017 -0.7263077136517901 0.07326720795398849 0.2573554491464197
 0.3367233728806687 0.23447613225279765 0.33672337288070103 0.234476132252864 0.07326720795398844 0.25735544914641967 0.2532860462847199 -0.7263077136516881
103000000.0 0.22917947327549773 -0.7295727845389146 0.09523709652769136 0.2614163373545814 0.33779171509834865 0.23407822359222938 0.3377917150983642 0.234078223592283
 0.09523709652769136 0.2614163373545814 0.22917947327566515 -0.7295727845387976 0.3377917150983648 0.23407822359229333 0.3377917150983969 0.2340782235923495
 0.3377917150983485 0.23407822359222938 0.33779171509836486 0.23407822359229327 0.24986141248898283 -0.7263351983768531 0.07455515731420527 0.2581787511925137
 0.33779171509836403 0.23407822359228284 0.3377917150983966 0.23407822359234934 0.0745551573142052 0.25817875119251354 0.24986141248911298 -0.7263351983767512
103500000.0 0.22574052587227642 -0.7294884435945108 0.09655694371389557 0.2621322510770069 0.33885126520685693 0.23367809625881525 0.3388512652068725 0.2336780962588691
 0.09655694371389553 0.26213225107700683 0.22574052587244442 -0.7294884435943938 0.3388512652068733 0.23367809625887948 0.33885126520690556 0.23367809625893574
 0.3388512652068566 0.23367809625881517 0.3388512652068733 0.23367809625887942 0.246452986896996 -0.7263475438328989 0.0758444826891749 0.25899135131538886
 0.3388512652068723 0.23367809625886896 0.3388512652069053 0.23367809625893562 0.07584448268917482 0.25899135131538875 0.24645298689712666 -0.7263475438327968
104000000.0 0.22231880876902665 -0.7293892851278235 0.09787700226695 0.2628376227892085 0.339902094481954 0.2332758311693715 0.33990209448197 0.23327583116942555
 0.09787700226695002 0.2628376227892084 0.22231880876919508 -0.7293892851277072 0.3399020944819709 0.2332758311694358 0.3399020944820034 0.23327583116949216
 0.3399020944819538 0.23327583116937142 0.33990209448197084 0.23327583116943576 0.24306074551112472 -0.7263449613937577 0.07713506552485068 0.25979329905513643
 0.3399020944819698 0.23327583116942527 0.33990209448200326 0.2332758311694921 0.07713506552485068 0.2597932990551364 0.24306074551125573 -0.7263449613936559
104500000.0 0.21891428748622618 -0.7292755291063544 0.09919716453264975 0.26353251400762717 0.34094427399050414 0.23287150754942834 0.3409442739905202 0.2328715075494824
 0.09919716453264973 0.26353251400762706 0.2189142874863951 -0.7292755291062383 0.3409442739905212 0.23287150754949282 0.34094427399055394 0.23287150754954927
 0.34094427399050387 0.2328715075494282 0.3409442739905213 0.23287150754949285 0.23968466293125656 -0.7263276601413445 0.0784267890876182 0.26058464504261075
 0.3409442739905201 0.2328715075494823 0.3409442739905538 0.23287150754954924 0.0784267890876182 0.26058464504261075 0.23968466293138813 -0.7263276601412428
105000000.0 0.2155269261287051 -0.7291473929960187 0.10051732472090398 0.26421698707008506 0.34197787457513723 0.23246520296303191 0.34197787457515355 0.23246520296308615
 0.100517324720904 0.264216987070085 0.21552692612887442 -0.7291473929959024 0.3419778745751545 0.23246520296309658 0.3419778745751875 0.23246520296315315
 0.34197787457513695 0.23246520296303183 0.3419778745751546 0.23246520296309658 0.23632471239323355 -0.7262958468825951 0.07971953845637414 0.26136544095665504
 0.34197787457515344 0.23246520296308604 0.34197787457518736 0.23246520296315296 0.07971953845637415 0.261365440956655 0.23632471239336547 -0.7262958468824934
105500000.0 0.21215668742745172 -0.7290050917801647 0.10183737889318438 0.264891105095856 0.3430029668396232 0.23205699334222024 0.34300296683963993 0.23205699334227461
 0.10183737889318431 0.2648911050958559 0.2121566874276216 -0.7290050917800487 0.34300296683964093 0.23205699334228516 0.34300296683967435 0.23205699334234176
 0.343002966839623 0.23205699334222013 0.34300296683964104 0.23205699334228513 0.23298086580662333 -0.7262497261665064 0.0810132005140115 0.2621357394821914
 0.3430029668396397 0.23205699334227445 0.343002966839674 0.2320569933423416 0.08101320051401141 0.26213573948219127 0.23298086580675567 -0.7262497261664049
106000000.0 0.20880353278055375 -0.7288488379787276 0.10315722494949857 0.26555493194662977 0.34401962113491474 0.23164695301611546 0.34401962113493173 0.23164695301617003
 0.10315722494949862 0.26555493194662966 0.20880353278072394 -0.7288488379786118 0.34401962113493284 0.23164695301618046 0.3440196211349665 0.23164695301623714
 0.34401962113491447 0.2316469530161152 0.3440196211349329 0.23164695301618038 0.22965309379171353 -0.7261895003012694 0.08230766393833748 0.2628955942691649
 0.3440196211349315 0.23164695301616972 0.34401962113496615 0.231646953016237 0.08230766393833748 0.26289559426916487 0.2296530937918462 -0.726189500301168
106500000.0 0.20546742229328246 -0.7286788416675011 0.10447676261491677 0.2662085321883674 0.34502790754584084 0.23123515473963366 0.34502790754585805 0.23123515473968845
 0.10447676261491674 0.2662085321883674 0.20546742229345338 -0.7286788416673854 0.34502790754585916 0.23123515473969897 0.34502790754589313 0.23123515473975587
 0.3450279075458407 0.23123515473963363 0.3450279075458592 0.23123515473969894 0.22634136571574393 -0.7261153693714795 0.08360281919245367 0.2636450598923396
 0.3450279075458579 0.23123515473968842 0.34502790754589285 0.23123515473975575 0.08360281919245363 0.2636450598923396 0.22634136571587737 -0.7261153693713781
107000000.0 0.2021483148173438 -0.7284953104975179 0.10579589342567454 0.26685197105403224 0.34602789587843075 0.23082166972181017 0.3460278958784483 0.23082166972186519
 0.1057958934256746 0.2668519710540322 0.20214831481751505 -0.7284953104974021 0.34602789587844945 0.23082166972187568 0.3460278958784837 0.2308216697219326
 0.34602789587843064 0.23082166972181012 0.34602789587844945 0.23082166972187565 0.223045649728394 -0.7260275312554256 0.08489855851462287 0.26438419181193373
 0.3460278958784481 0.23082166972186502 0.3460278958784834 0.23082166972193247 0.08489855851462283 0.2643841918119337 0.22304564972852775 -0.7260275312553243
107500000.0 0.19884616798930344 -0.7282984497145288 0.10711452071488041 0.2674853144071905 0.34701965564784765 0.23040656765373738 0.3470196556478653 0.2304065676537925
 0.1071145207148804 0.26748531440719037 0.19884616798947538 -0.7282984497144135 0.3470196556478666 0.23040656765380307 0.34701965564790116 0.23040656765386014
 0.3470196556478474 0.2304065676537372 0.3470196556478667 0.23040656765380307 0.21976591279653246 -0.7259261816424363 0.0861947759076501 0.2651130463350914
 0.34701965564786513 0.23040656765379233 0.3470196556479009 0.23040656765385994 0.08619477590764996 0.26511304633509125 0.2197659127966667 -0.725926181642335
108000000.0 0.19556093826820728 -0.7280884621785667 0.10843254959784823 0.26810862870646807 0.3480032560669114 0.22998991673611818 0.3480032560669294 0.22998991673617342
 0.10843254959784819 0.2681086287064679 0.19556093826837986 -0.7280884621784519 0.34800325606693067 0.22998991673618396 0.3480032560669654 0.2299899167362411
 0.3480032560669112 0.229989916736118 0.3480032560669308 0.22998991673618394 0.21650212073825353 -0.7258115140502848 0.0874913671278007 0.2658316805781794
 0.3480032560669292 0.2299899167361732 0.3480032560669652 0.2299899167362409 0.08749136712780069 0.2658316805781793 0.2165021207383882 -0.7258115140501838
108500000.0 0.19229258097240778 -0.7278655483835853 0.10974988695708116 0.2687219809708574 0.3489787660351943 0.2295717837064334 0.34897876603521255 0.2295717837064887
 0.10974988695708118 0.2687219809708573 0.1922925809725807 -0.7278655483834705 0.34897876603521394 0.22957178370649947 0.3489787660352489 0.2295717837065565
 0.3489787660351941 0.22957178370643325 0.34897876603521394 0.22957178370649936 0.21325423825620504 -0.7256837198426386 0.08878822967328265 0.2665401524299042
 0.34897876603521233 0.2295717837064885 0.34897876603524874 0.2295717837065564 0.08878822967328263 0.26654015242990414 0.21325423825634 -0.7256837198425379
109000000.0 0.18904105031561122 -0.7276299064771641 0.11106644142692841 0.2693254387458593 0.3499462541286686 0.22915223386572234 0.3499462541286872 0.22915223386577796
 0.11106644142692837 0.26932543874585924 0.18904105031578453 -0.7276299064770494 0.34994625412868857 0.2291522338657886 0.3499462541287238 0.2291522338658459
 0.3499462541286683 0.2291522338657222 0.34994625412868857 0.22915223386578856 0.21002222897022435 -0.7255429882465478 0.09008526277231368 0.2672385205152366
 0.3499462541286869 0.2291522338657778 0.34994625412872354 0.22915223386584574 0.09008526277231367 0.26723852051523656 0.21002222897036008 -0.7255429882464471
109500000.0 0.18580629944216293 -0.7273817322802693 0.11238212337793585 0.26991907007045124 0.3509057885898886 0.22873133110497967 0.3509057885899073 0.22873133110503532
 0.11238212337793581 0.26991907007045113 0.18580629944233687 -0.7273817322801548 0.35090578858990884 0.2287313311050461 0.35090578858994437 0.22873133110510338
 0.35090578858988836 0.22873133110497956 0.35090578858990884 0.2287313311050461 0.20680605544929997 -0.7253895063699634 0.09138236737079751 0.2679268441601389
 0.3509057885899072 0.22873133110503513 0.3509057885899443 0.22873133110510327 0.09138236737079748 0.2679268441601388 0.20680605544943592 -0.7253895063698629
110000000.0 0.18258828046158065 -0.7271212193070604 0.1136968449009139 0.2705029434448711 0.3518574373186902 0.22830913793116595 0.3518574373187094 0.22830913793122184
 0.11369684490091388 0.2705029434448711 0.1825882804617551 -0.7271212193069461 0.35185743731871094 0.22830913793123267 0.3518574373187468 0.22830913793128998
 0.35185743731869 0.2283091379311659 0.3518574373187109 0.22830913793123261 0.20360567924286171 -0.7252234592192791 0.09267944611963139 0.26860518335708344
 0.35185743731870917 0.2283091379312216 0.3518574373187465 0.22830913793128982 0.0926794461196313 0.26860518335708333 0.20360567924299802 -0.7252234592191789
110500000.0 0.17938694448235148 -0.7268485587847354 0.11501051979074052 0.2710771277992047 0.3528012678633913 0.22788571549283726 0.3528012678634105 0.2278857154928932
 0.11501051979074053 0.2710771277992045 0.17938694448252632 -0.7268485587846213 0.35280126786341215 0.22788571549290404 0.3528012678634482 0.2278857154929615
 0.35280126786339105 0.22788571549283715 0.3528012678634123 0.22788571549290407 0.20042106091142456 -0.7250450297168914 0.09397640336166589 0.26927359873135404
 0.35280126786341026 0.22788571549289302 0.35280126786344806 0.22788571549296147 0.09397640336166589 0.26927359873135404 0.20042106091156123 -0.725045029716791
111000000.0 0.17620224164500659 -0.7265639396734024 0.1163230635299215 0.2716416924627651 0.3537373474124727 0.22746112360539086 0.35373734741249235 0.2274611236054471
 0.11632306352992142 0.271641692462765 0.17620224164518206 -0.7265639396732884 0.3537373474124939 0.22746112360545792 0.35373734741253043 0.22746112360551554
 0.35373734741247254 0.22746112360539086 0.3537373474124941 0.227461123605458 0.1972521600565885 -0.7248543987187649 0.09527314511833784 0.2699321515081215
 0.35373734741249224 0.227461123605447 0.3537373474125304 0.22746112360551551 0.09527314511833775 0.2699321515081214 0.19725216005672588 -0.7248543987186647
111500000.0 0.17303412115448633 -0.7262675486859739 0.11763439327192464 0.2721967071342542 0.3546657427867309 0.22703542077593278 0.3546657427867508 0.22703542077598912
 0.11763439327192461 0.27219670713425415 0.17303412115466224 -0.7262675486858602 0.3546657427867524 0.22703542077600006 0.3546657427867891 0.22703542077605765
 0.3546657427867307 0.22703542077593272 0.3546657427867525 0.22703542077599997 0.19409893535041298 -0.7246517450320074 0.09656957907599639 0.27058090348028113
 0.35466574278675056 0.22703542077598893 0.3546657427867889 0.2270354207760575 0.09656957907599632 0.27058090348028097 0.19409893535055053 -0.7246517450319072
112000000.0 0.16988253131180772 -0.7259595703080747 0.11894442782430958 0.272742241852693 0.35558652043187733 0.2266086642277645 0.3555865204318974 0.22660866422782103
 0.11894442782430956 0.27274224185269286 0.1698825313119841 -0.7259595703079613 0.3555865204318992 0.22660866422783188 0.3555865204319361 0.22660866422788956
 0.35558652043187705 0.22660866422776443 0.35558652043189926 0.22660866422783185 0.1909613445641733 -0.7244372454324349 0.09786561457194246 0.27121991697704656
 0.3555865204318972 0.22660866422782086 0.355586520431936 0.22660866422788947 0.09786561457194239 0.2712199169770465 0.19096134456431135 -0.7244372454323348
112500000.0 0.1667474195450502 -0.7256401868179516 0.12025308763166696 0.2732783669691092 0.356499746411577 0.22618090992449538 0.35649974641159726 0.22618090992455203
 0.12025308763166698 0.2732783669691092 0.16674741954522707 -0.7256401868178384 0.35649974641159915 0.22618090992456302 0.3564997464116365 0.22618090992462078
 0.35649974641157683 0.22618090992449533 0.3564997464115993 0.22618090992456294 0.18783934459651683 -0.7242110746821347 0.09916116258019866 0.2718492548332857
 0.35649974641159726 0.22618090992455195 0.35649974641163623 0.22618090992462064 0.09916116258019862 0.27184925483328565 0.18783934459665536 -0.7242110746820348
113000000.0 0.16362873243966872 -0.7253095783063837 0.12156029475838755 0.2738051531189725 0.3574054864009072 0.22575221259378048 0.35740548640092773 0.22575221259383718
 0.12156029475838748 0.2738051531189724 0.16362873243984596 -0.7253095783062706 0.3574054864009297 0.22575221259384826 0.3574054864009671 0.22575221259390604
 0.35740548640090686 0.22575221259378037 0.35740548640092973 0.22575221259384826 0.18473289150102407 -0.72397340554701 0.10045613569703034 0.27246898035959216
 0.35740548640092745 0.2257522125938371 0.3574054864009669 0.225752212593906 0.10045613569703027 0.2724689803595921 0.1847328915011631 -0.7239734055469101
113500000.0 0.16052641576814858 -0.7249679226965827 0.12286597287127626 0.2743226711953628 0.35830380568022246 0.22532262575068562 0.35830380568024334 0.22532262575074244
 0.12286597287127622 0.2743226711953627 0.16052641576832616 -0.7249679226964701 0.3583038056802452 0.2253226257507534 0.3583038056802831 0.22532262575081127
 0.35830380568022224 0.2253226257506855 0.35830380568024534 0.22532262575075337 0.1816419405131903 -0.7237244088143061 0.10175044812623285 0.2730791573130794
 0.35830380568024306 0.22532262575074222 0.3583038056802827 0.22532262575081105 0.10175044812623274 0.27307915731307925 0.18164194051332944 -0.7237244088142065
114000000.0 0.15744041451901616 -0.7246153957640783 0.1241700472220268 0.2748309923228616 0.359194769129413 0.2248922017206846 0.35919476912943404 0.2248922017207416
 0.12417004722202679 0.2748309923228614 0.15744041451919433 -0.7246153957639658 0.35919476912943604 0.22489220172075258 0.359194769129474 0.22489220172081045
 0.35919476912941267 0.22489220172068447 0.35919476912943615 0.22489220172075253 0.1785664460768375 -0.7234642533101131 0.10304401566420379 0.27367984986888966
 0.3591947691294338 0.22489220172074142 0.3591947691294739 0.22489220172081045 0.1030440156642037 0.2736798498688896 0.1785664460769771 -0.7234642533100135
114500000.0 0.15437067292521262 -0.7242521711565792 0.12547244462957352 0.27533018783215374 0.36007844122254085 0.22446099166228964 0.3600784412225623 0.22446099166234693
 0.12547244462957358 0.2753301878321537 0.1543706729253911 -0.7242521711564669 0.3600784412225644 0.2244609916623578 0.3600784412226028 0.22446099166241587
 0.3600784412225406 0.22446099166228958 0.36007844122256444 0.22446099166235783 0.175506361869968 -0.7231931059168377 0.10433675568481646 0.27427112259240555
 0.3600784412225621 0.2244609916623467 0.3600784412226025 0.2244609916624158 0.10433675568481643 0.27427112259240544 0.17550636187010818 -0.7231931059167384
115000000.0 0.15131713449184786 -0.7238784204138093 0.12677309346233356 0.27582032923532834 0.36095488602284304 0.2240290455893181 0.3609548860228647 0.2240290455893754
 0.12677309346233356 0.2758203292353282 0.15131713449202677 -0.7238784204136973 0.3609548860228668 0.22402904558938638 0.36095488602290543 0.22402904558944442
 0.36095488602284276 0.22402904558931805 0.36095488602286685 0.22402904558938644 0.17246164083007 -0.722911131590642 0.10562858712410927 0.27485304041215436
 0.3609548860228644 0.2240290455893752 0.3609548860229052 0.22402904558944434 0.1056285871241092 0.27485304041215414 0.17246164083021068 -0.7229111315905429
115500000.0 0.1482797420233413 -0.7234943129873069 0.12807192362035483 0.27630148820186606 0.3618241671780852 0.22359641239279865 0.3618241671781072 0.22359641239285602
 0.12807192362035486 0.27630148820186595 0.14827974202352065 -0.723494312987195 0.3618241671781092 0.223596412392867 0.36182416717814825 0.22359641239292521
 0.361824167178085 0.22359641239279857 0.36182416717810933 0.22359641239286704 0.1694322351788863 -0.7226184933788434 0.10691943046480776 0.2754256685933959
 0.36182416717810695 0.22359641239285583 0.3618241671781479 0.22359641239292508 0.10691943046480774 0.27542566859339573 0.16943223517902734 -0.7226184933787444
116000000.0 0.14525843764996743 -0.7231000162601856 0.12936886651738325 0.27677373653530185 0.3626863479162575 0.22316313986252057 0.3626863479162798 0.2231631398625782
 0.12936886651738327 0.2767737365353017 0.1452584376501472 -0.7231000162600739 0.36268634791628185 0.22316313986258918 0.3626863479163211 0.22316313986264738
 0.36268634791625737 0.2231631398625205 0.362686347916282 0.2231631398625892 0.1664180964466552 -0.7223153524372717 0.1082092077206935 0.2759890727123813
 0.3626863479162795 0.22316313986257794 0.3626863479163209 0.22316313986264724 0.10820920772069342 0.27598907271238116 0.16641809644679656 -0.7223153524371728
116500000.0 0.14225316285380965 -0.72269569556685 0.1306638550628617 0.27723714615055073 0.36354149104159683 0.222729274708229 0.36354149104161926 0.22272927470828663
 0.13066385506286174 0.2772371461505507 0.1422531628539899 -0.7226956955667385 0.36354149104162164 0.22272927470829776 0.363541491041661 0.2227292747083559
 0.36354149104159666 0.222729274708229 0.36354149104162164 0.2227292747082978 0.16341917549583557 -0.7220018680475795 0.10949784242083375 0.2765433186312737
 0.36354149104161904 0.2227292747082865 0.3635414910416608 0.2227292747083559 0.10949784242083369 0.27654331863127357 0.16341917549597715 -0.7220018680474806
117000000.0 0.13926385849413908 -0.7222815142126613 0.13195682364387426 0.2776917890518846 0.3643896589309254 0.22229486258046824 0.3643896589309481 0.22229486258052608
 0.13195682364387423 0.2776917890518845 0.1392638584943199 -0.7222815142125499 0.3643896589309505 0.22229486258053727 0.36438965893099023 0.22229486258059553
 0.36438965893092523 0.22229486258046827 0.3643896589309505 0.22229486258053727 0.16043542254432447 -0.7216781976345027 0.11078525959368703 0.27708847247371965
 0.36438965893094794 0.22229486258052591 0.3643896589309899 0.22229486258059544 0.11078525959368694 0.27708847247371954 0.16043542254446644 -0.7216781976344041
117500000.0 0.13629046483222912 -0.7218576334935473 0.1332477081070469 0.2781377373115489 0.36523091353029374 0.22185994809108 0.3652309135303167 0.22185994809113782
 0.13324770810704686 0.27813773731154884 0.13629046483241 -0.7218576334934363 0.36523091353031917 0.22185994809114898 0.36523091353035914 0.22185994809120724
 0.3652309135302935 0.22185994809107992 0.3652309135303192 0.2218599480911489 0.15746678718817889 -0.7213444967830663 0.11207138575109529 0.27762460060106114
 0.3652309135303166 0.2218599480911377 0.3652309135303588 0.22185994809120715 0.11207138575109522 0.27762460060106103 0.15746678718832122 -0.7213444967829677
118000000.0 0.1333329215556113 -0.7214242127155546 0.13453644574041707 0.2785750630490071 0.3660653163519172 0.2214245748333551 0.3660653163519404 0.22142457483341318
 0.13453644574041707 0.278575063049007 0.13333292155579302 -0.7214242127154438 0.36606531635194284 0.2214245748334243 0.36606531635198303 0.2214245748334827
 0.36606531635191697 0.22142457483335498 0.36606531635194295 0.22142457483342426 0.15451321842384785 -0.7210009192557318 0.11335614887217847 0.27815176958917737
 0.36606531635194006 0.22142457483341302 0.36606531635198275 0.22142457483348266 0.1133561488721784 0.2781517695891773 0.1545132184239907 -0.721000919255633
118500000.0 0.1303911678017906 -0.7209814092143333 0.13582297525528286 0.2790038384108004 0.3668929284713941 0.22098878540184835 0.3668929284714176 0.22098878540190645
 0.13582297525528286 0.27900383841080023 0.13039116780197266 -0.7209814092142226 0.3668929284714202 0.22098878540191766 0.36689292847146054 0.22098878540197606
 0.3668929284713939 0.2209887854018482 0.36689292847142013 0.22098878540191763 0.15157466466992944 -0.7206476170094851 0.11463947838714197 0.2786700462059455
 0.3668929284714173 0.2209887854019063 0.3668929284714605 0.22098878540197606 0.11463947838714197 0.2786700462059455 0.15157466467007283 -0.7206476170093867
119000000.0 0.12746514218142366 -0.7205293783745561 0.1371072367680427 0.27942413555101364 0.3677138105251974 0.2205526214118539 0.36771381052522123 0.2205526214119122
 0.13710723676804262 0.2794241355510136 0.12746514218160598 -0.7205293783744456 0.36771381052522367 0.22055262141192344 0.3677138105252644 0.22055262141198195
 0.367713810525197 0.2205526214118539 0.3677138105252236 0.2205526214119234 0.14865107378845568 -0.7202847402128596 0.11592130516100864 0.2791794973893105
 0.3677138105252209 0.22055262141191198 0.3677138105252642 0.2205526214119817 0.11592130516100864 0.2791794973893103 0.14865107378859924 -0.7202847402127617
119500000.0 0.12455478280097418 -0.7200682736492652 0.1383891717820352 0.2798360266123318 0.3685280227084256 0.22011612351855003 0.3685280227084496 0.2201161235186085
 0.13838917178203514 0.2798360266123317 0.12455478280115709 -0.7200682736491547 0.36852802270845225 0.22011612351861973 0.3685280227084932 0.22011612351867824
 0.36852802270842533 0.22011612351855003 0.36852802270845225 0.2201161235186198 0.14574239310571943 -0.7199124372628922 0.11720156147728775 0.27968019022595214
 0.36852802270844937 0.22011612351860835 0.368528022708493 0.22011612351867818 0.11720156147728769 0.27968019022595203 0.14574239310586348 -0.7199124372627943
120000000.0 0.12166002728485464 -0.7195982465791391 0.13966872316938966 0.2802395837076789 0.3693356247728075 0.21967933143581422 0.3693356247728318 0.21967933143587257
 0.1396687231693897 0.28023958370767865 0.12166002728503801 -0.719598246579029 0.36933562477283455 0.21967933143588392 0.36933562477287585 0.21967933143594234
 0.36933562477280724 0.21967933143581397 0.3693356247728345 0.21967933143588395 0.14284856943265106 -0.7195308548020082 0.11848018102159133 0.2801721919305413
 0.3693356247728315 0.21967933143587237 0.3693356247728756 0.2196793314359423 0.11848018102159132 0.28017219193054116 0.14284856943279525 -0.7195308548019105
120500000.0 0.11878081279706328 -0.7191194468116845 0.14094583515289755 0.28063487890242783 0.37013667602494915 0.21924228395471299 0.37013667602497363 0.21924228395477166
 0.14094583515289758 0.2806348789024277 0.11878081279724684 -0.7191194468115748 0.37013667602497635 0.21924228395478282 0.3701366760250179 0.2192422839548414
 0.3701366760249488 0.21924228395471296 0.37013667602497646 0.21924228395478287 0.13996954908474965 -0.7191401377348359 0.11975709886520892 0.2806555698255725
 0.3701366760249734 0.21924228395477147 0.3701366760250176 0.21924228395484133 0.11975709886520884 0.2806555698255723 0.1399695490848943 -0.7191401377347381
121000000.0 0.11591707606232604 -0.7186320221203405 0.14222045328790997 0.2810219841971669 0.3709312353248112 0.21880501896167207 0.3709312353248358 0.21880501896173077
 0.14222045328790997 0.2810219841971668 0.11591707606251006 -0.718632022120231 0.3709312353248388 0.21880501896174206 0.3709312353248805 0.21880501896180068
 0.3709312353248109 0.21880501896167198 0.3709312353248388 0.21880501896174204 0.13710527790158428 -0.7187404292449434 0.12103225144864915 0.2811303913217629
 0.37093123532483563 0.2188050189617307 0.3709312353248803 0.21880501896180074 0.12103225144864908 0.2811303913217628 0.1371052779017295 -0.7187404292448455
121500000.0 0.11306875338675466 -0.7181361184234982 0.14349252444427546 0.2814009715110147 0.3717193610844135 0.21836757345632762 0.37171936108443854 0.2183675734563865
 0.1434925244442754 0.2814009715110146 0.1130687533869393 -0.7181361184233888 0.37171936108444137 0.21836757345639782 0.3717193610844834 0.21836757345645652
 0.37171936108441334 0.21836757345632757 0.37171936108444154 0.21836757345639776 0.13425570126586736 -0.7183318708114999 0.1223055765651607 0.28159672389900936
 0.3717193610844384 0.2183675734563864 0.3717193610844833 0.21836757345645644 0.12230557656516063 0.2815967238990092 0.13425570126601297 -0.718331870811402
122000000.0 0.11023578067802997 -0.7176318798034291 0.1447619967883215 0.28177191266547136 0.3725011112667526 0.21792998356906565 0.37250111126677793 0.21792998356912455
 0.14476199678832144 0.2817719126654712 0.11023578067821467 -0.7176318798033201 0.3725011112667808 0.21792998356913587 0.372501111266823 0.21792998356919452
 0.3725011112667525 0.2179299835690656 0.3725011112667808 0.21792998356913582 0.13142076412211032 -0.7179146022258543 0.123577013344239 0.28205463508788964
 0.37250111126677765 0.21792998356912435 0.37250111126682295 0.21792998356919446 0.12357701334423898 0.2820546350878896 0.13142076412225595 -0.717914602225757
122500000.0 0.10741809346511423 -0.7171194485251212 0.14602881976488968 0.28213487936879383 0.373276543384926 0.2174922845782509 0.37327654338495164 0.21749228457831005
 0.14602881976488963 0.2821348793687938 0.10741809346529922 -0.7171194485250122 0.3732765433849546 0.21749228457832134 0.3732765433849972 0.21749228457838013
 0.3732765433849257 0.2174922845782509 0.3732765433849546 0.21749228457832137 0.12860041099487143 -0.7174887616080359 0.12484650223513 0.2825041924517016
 0.37327654338495153 0.21749228457830988 0.3732765433849969 0.21749228457837996 0.12484650223512997 0.2825041924517015 0.12860041099501748 -0.7174887616079386
123000000.0 0.10461562691751113 -0.7165989650550182 0.147292944079432 0.28248994320088755 0.374045714501456 0.21705451092715328 0.37404571450148194 0.21705451092721248
 0.147292944079432 0.2824899432008875 0.10461562691769655 -0.7165989650549093 0.37404571450148494 0.21705451092722383 0.37404571450152774 0.21705451092728262
 0.3740457145014558 0.2170545109271532 0.3740457145014849 0.21705451092722375 0.12579458600660273 -0.7170544854231646 0.12611398499033796 0.2829454635690273
 0.3740457145014817 0.2170545109272123 0.37404571450152746 0.2170545109272825 0.12611398499033785 0.28294546356902717 0.1257945860067494 -0.7170544854230676
123500000.0 0.10182831586407473 -0.7160705680796606 0.1485543216801744 0.2828371755986988 0.37480868122780253 0.21661669624056948 0.3748086812278288 0.21661669624062874
 0.14855432168017438 0.2828371755986987 0.10182831586426079 -0.7160705680795519 0.37480868122783173 0.2166166962406402 0.3748086812278748 0.21661669624069896
 0.3748086812278023 0.2166166962405695 0.37480868122783173 0.21661669624064023 0.12300323289510136 -0.716611908497781 0.1273794046491456 0.2833785160168124
 0.37480868122782857 0.21661669624062854 0.37480868122787464 0.21661669624069885 0.12737940464914557 0.28337851601681224 0.12300323289524803 -0.7166119084976842
124000000.0 0.09905609481137868 -0.715534394524226 0.1498129057403552 0.2831766478421022 0.37556549972405995 0.21617887334115135 0.3755654997240863 0.21617887334121055
 0.1498129057403552 0.28317664784210217 0.09905609481156481 -0.7155343945241176 0.3755654997240895 0.2161788733412219 0.3755654997241328 0.2161788733412808
 0.37556549972405967 0.2161788733411511 0.3755654997240895 0.21617887334122188 0.12022629503057498 -0.716161164036084 0.12864270552115642 0.2838034173539532
 0.3755654997240861 0.21617887334121044 0.37556549972413245 0.2161788733412807 0.1286427055211564 0.28380341735395315 0.12022629503072209 -0.716161164035987
124500000.0 0.09629889796165264 -0.7149905795709645 0.15106865064054448 0.28350843104026874 0.3763162256988279 0.21574107426543768 0.37631622569885453 0.2157410742654972
 0.15106865064054448 0.2835084310402687 0.09629889796183938 -0.7149905795708562 0.3763162256988577 0.2157410742655085 0.3763162256989014 0.2157410742655675
 0.37631622569882767 0.2157410742654376 0.3763162256988578 0.2157410742655085 0.11746371543233068 -0.7157023836360802 0.12990383316986368 0.28422023510537764
 0.3763162256988544 0.21574107426549713 0.37631622569890116 0.21574107426556746 0.12990383316986365 0.2842202351053776 0.11746371543247859 -0.7157023836359834
125000000.0 0.09355665923029834 -0.714439256677528 0.15232151195105031 0.2838325961185063 0.37706091440925177 0.21530333027960138 0.3770609144092787 0.21530333027966095
 0.1523215119510503 0.28383259611850625 0.09355665923048513 -0.71443925667742 0.37706091440928197 0.21530333027967233 0.37706091440932565 0.21530333027973125
 0.37706091440925155 0.2153033302796013 0.3770609144092819 0.21530333027967224 0.11471543678509095 -0.7152356973056423 0.13116273439625512 0.28462903674661383
 0.3770609144092785 0.21530333027966084 0.37706091440932543 0.21530333027973106 0.13116273439625506 0.2846290367466138 0.11471543678523896 -0.7152356973055457
125500000.0 0.09082931226298918 -0.7138805575951934 0.1535714464144177 0.2841492138055615 0.3777996206612224 0.21486567189490743 0.37779962066124956 0.21486567189496705
 0.15357144641441764 0.28414921380556146 0.0908293122631765 -0.7138805575950858 0.37779962066125283 0.2148656718949785 0.3777996206612968 0.21486567189503739
 0.3777996206612221 0.21486567189490727 0.37779962066125283 0.2148656718949784 0.11198140145494402 -0.7147612334784729 0.13241935722246018 0.28502988968883386
 0.37779962066124917 0.2148656718949669 0.3777996206612965 0.21486567189503733 0.13241935722246015 0.28502988968883386 0.11198140145509235 -0.7147612334783763
126000000.0 0.08811679045236209 -0.7133146123869737 0.1548184119280264 0.2844583546213719 0.37853239880973105 0.2144281288828928 0.3785323988097585 0.21442812888295262
 0.15481841192802637 0.2844583546213718 0.08811679045254993 -0.7133146123868662 0.37853239880976186 0.21442812888296406 0.3785323988098063 0.214428128883023
 0.3785323988097309 0.21442812888289278 0.37853239880976197 0.2144281288829641 0.10926155150493988 -0.7142791190299742 0.1336736508754461 0.28542286126436556
 0.37853239880975825 0.21442812888295243 0.37853239880980605 0.21442812888302293 0.13367365087544603 0.2854228612643654 0.10926155150508857 -0.714279119029878
126500000.0 0.08541902695431397 -0.7127415494456152 0.15606236752679098 0.2847600888652606 0.3792593027593727 0.21399073029027013 0.3792593027594002 0.21399073029032992
 0.15606236752679098 0.28476008886526055 0.08541902695450206 -0.7127415494455079 0.37925930275940384 0.2139907302903414 0.37925930275944825 0.2139907302904004
 0.3792593027593724 0.21399073029026996 0.3792593027594037 0.21399073029034132 0.10655582871033425 -0.7137894792930227 0.13492556577076786 0.2858080187126608
 0.37925930275939995 0.21399073029032983 0.3792593027594479 0.21399073029040033 0.13492556577076784 0.28580801871266076 0.10655582871048329 -0.7137894792929262
127000000.0 0.08273595470390241 -0.7121614955114858 0.15730327336597053 0.28505448660456045 0.3799803859649883 0.21355350445355592 0.379980385965016 0.21355350445361576
 0.15730327336597055 0.2850544866045604 0.08273595470409098 -0.7121614955113785 0.37998038596501954 0.21355350445362734 0.3799803859650644 0.21355350445368632
 0.37998038596498795 0.21355350445355586 0.37998038596501954 0.21355350445362728 0.10386417457348937 -0.7132924380736441 0.13617505349638093 0.2861854291667121
 0.3799803859650159 0.21355350445361568 0.379980385965064 0.21355350445368626 0.1361750534963809 0.28618542916671197 0.10386417457363863 -0.7132924380735481
127500000.0 0.08006750643086755 -0.7115745756903409 0.15854109070409053 0.28534161766366145 0.38069570143244524 0.21311647901343372 0.3806957014324734 0.21311647901349368
 0.15854109070409056 0.2853416176636614 0.08006750643105617 -0.7115745756902341 0.3806957014324769 0.21311647901350517 0.380695701432522 0.21311647901356418
 0.380695701432445 0.21311647901343364 0.38069570143247705 0.2131164790135052 0.10118653033843647 -0.7127881176665931 0.13742206679651892 0.2865551596399069
 0.3806957014324731 0.21311647901349343 0.3806957014325218 0.21311647901356406 0.1374220667965189 0.2865551596399067 0.10118653033858611 -0.7127881176664975
128000000.0 0.07741361467477545 -0.7109809134709786 0.1597757818859821 0.2856215516134679 0.3814053017195453 0.21267968092884995 0.38140530171957365 0.21267968092891024
 0.15977578188598207 0.2856215516134678 0.07741361467496452 -0.710980913470872 0.3814053017195773 0.21267968092892162 0.3814053017196226 0.21267968092898065
 0.38140530171954495 0.21267968092884995 0.3814053017195773 0.2126796809289216 0.09852283700511062 -0.7122766388708303 0.13866655955564391 0.2869172770133127
 0.3814053017195734 0.21267968092891 0.38140530171962234 0.2126796809289806 0.13866655955564386 0.2869172770133125 0.09852283700526081 -0.7122766388707344
128500000.0 0.07477421179979367 -0.71038063074277 0.16100731032594243 0.2858943577612583 0.3821092389370556 0.2122431364908512 0.3821092389370842 0.2122431364909114
 0.16100731032594234 0.28589435776125816 0.0747742117999833 -0.7103806307426638 0.38210923893708787 0.2122431364909229 0.38210923893713333 0.212243136490982
 0.3821092389370553 0.2122431364908511 0.38210923893708804 0.2122431364909229 0.09587303534325897 -0.7117581210048997 0.13990848678247442 0.28727184802338074
 0.38210923893708393 0.2122431364909113 0.38210923893713317 0.21224313649098203 0.13990848678247433 0.2872718480233806 0.09587303534340934 -0.7117581210048037
129000000.0 0.07214923000910732 -0.7097738478130741 0.16223564049102102 0.28616010514093926 0.382807564749859 0.21180687133616338 0.382807564749888 0.21180687133622372
 0.16223564049102093 0.28616010514093915 0.07214923000929706 -0.7097738478129678 0.38280756474989164 0.21180687133623521 0.38280756474993743 0.2118068713362944
 0.3828075647498589 0.21180687133616344 0.38280756474989175 0.21180687133623533 0.09323706590603122 -0.7112326819222047 0.14114780459409446 0.2876189392500628
 0.38280756474988775 0.2118068713362236 0.3828075647499372 0.2118068713362943 0.14114780459409432 0.2876189392500626 0.09323706590618179 -0.711232681922109
129500000.0 0.06953860135897752 -0.709160683424527 0.16346073788443488 0.28641886250368104 0.3835003303782167 0.21137091046051978 0.383500330378246 0.21137091046058015
 0.16346073788443477 0.28641886250368087 0.06953860135916769 -0.7091606834244211 0.38350033037824965 0.21137091046059162 0.3835003303782957 0.21137091046065076
 0.38350033037821657 0.21137091046051976 0.38350033037824965 0.21137091046059164 0.09061486904325966 -0.7107004380261814 0.14238447020014977 0.2879586171053283
 0.38350033037824566 0.21137091046058004 0.38350033037829556 0.2113709104606507 0.1423844702001497 0.2879586171053282 0.09061486904341058 -0.710700438026086
130000000.0 0.06694225777245665 -0.7085412547722114 0.1646825690291145 0.28667069830892794 0.3841875865991368 0.21093527823173913 0.3841875865991664 0.21093527823179958
 0.16468256902911446 0.2866706983089278 0.06694225777264744 -0.7085412547721056 0.38418758659917013 0.21093527823181113 0.3841875865992165 0.21093527823187028
 0.3841875865991366 0.21093527823173905 0.3841875865991702 0.21093527823181116 0.08800638491443324 -0.7101615042853673 0.14361844188713518 0.288290947822077
 0.38418758659916613 0.21093527823179942 0.3841875865992162 0.21093527823187025 0.14361844188713513 0.28829094782207687 0.08800638491458466 -0.7101615042852722
130500000.0 0.06436013105276249 -0.7079156775206998 0.16590110145138717 0.2869156807157753 0.38486938374784724 0.21049999840256048 0.384869383747877 0.21049999840262099
 0.1659011014513872 0.2869156807157753 0.06436013105295348 -0.7079156775205943 0.3848693837478809 0.2104999984026326 0.3848693837479274 0.2104999984026917
 0.3848693837478471 0.2104999984025604 0.3848693837478809 0.21049999840263256 0.0854115535013704 -0.7096159942483672 0.1448496790027767 0.2886159974434355
 0.38486938374787677 0.21049999840262082 0.3848693837479272 0.21049999840269162 0.14484967900277657 0.2886159974434354 0.08541155350152192 -0.709615994248272
131000000.0 0.0617921528963166 -0.7072840658209754 0.16711630366479757 0.2871538775747015 0.38554577171936477 0.21006509412323573 0.3855457717193945 0.21006509412329635
 0.1671163036647975 0.2871538775747014 0.06179215289650789 -0.7072840658208699 0.3855457717193986 0.21006509412330793 0.3855457717194453 0.2100650941233671
 0.3855457717193645 0.2100650941232356 0.3855457717193985 0.21006509412330787 0.08283031462059855 -0.7090640200587117 0.14607814194051277 0.28893383181243076
 0.38554577171939436 0.21006509412329624 0.38554577171944526 0.21006509412336705 0.14607814194051272 0.28893383181243065 0.08283031462075054 -0.7090640200586167
131500000.0 0.05923825490545974 -0.7066465323272226 0.16832814515406894 0.2873853564196484 0.38621679997015684 0.20963058795388675 0.38621679997018715 0.20963058795394743
 0.16832814515406896 0.28738535641964835 0.0592382549056518 -0.7066465323271176 0.3862167999701912 0.20963058795395903 0.3862167999702383 0.2096305879540183
 0.38621679997015673 0.2096305879538867 0.3862167999701912 0.209630587953959 0.08026260793544723 -0.708505692469613 0.14730379212407885 0.2892445165620317
 0.3862167999701869 0.20963058795394723 0.386216799970238 0.20963058795401812 0.14730379212407882 0.28924451656203165 0.08026260793559954 -0.7085056924695184
132000000.0 0.05669836860084497 -0.7060031882134964 0.16953659635920973 0.2876101844604413 0.3868825175198936 0.2091965018766278 0.3868825175199242 0.20919650187668862
 0.1695365963592097 0.2876101844604412 0.05669836860103692 -0.7060031882133916 0.38688251751992814 0.20919650187670008 0.3868825175199755 0.20919650187675942
 0.38688251751989344 0.20919650187662778 0.38688251751992825 0.20919650187670016 0.0777083729678542 -0.7079411208586123 0.1485265919921975 0.2895481171055501
 0.3868825175199238 0.20919650187668842 0.38688251751997527 0.20919650187675942 0.14852659199219748 0.28954811710554995 0.0777083729680069 -0.7079411208585176
132500000.0 0.05417242543351635 -0.7053541431902585 0.17074162865976386 0.28782842857553953 0.3875429729532806 0.2087628573074602 0.3875429729533113 0.20876285730752114
 0.1707416286597638 0.2878284285755394 0.05417242543370897 -0.7053541431901537 0.38754297295331536 0.2087628573075328 0.3875429729533628 0.20876285730759206
 0.3875429729532804 0.20876285730746025 0.3875429729533154 0.2087628573075328 0.0751675491098985 -0.7073704132421199 0.14974650498337871 0.289844698627394
 0.3875429729533111 0.208762857307521 0.3875429729533626 0.208762857307592 0.1497465049833786 0.28984469862739387 0.07516754911005144 -0.7073704132420252
133000000.0 0.05166035679668252 -0.7046995055207882 0.17194321435921106 0.2880401553051101 0.38819821442197344 0.20832967510794073 0.3881982144220043 0.20832967510800174
 0.171943214359211 0.28804015530510996 0.0516603567968756 -0.7046995055206837 0.3881982144220086 0.20832967510801337 0.3881982144220563 0.2083296751080726
 0.3881982144219732 0.2083296751079407 0.3881982144220087 0.2083296751080134 0.07264007563505866 -0.7067936762898495 0.1509634955208322 0.2901343260741643
 0.3881982144220042 0.20832967510800152 0.3881982144220562 0.20832967510807252 0.15096349552083216 0.29013432607416423 0.07264007563521188 -0.7067936762897553
133500000.0 0.04916209403718776 -0.7040393820374646 0.17314132666951648 0.28824543084441473 0.3888482896465678 0.20789697559662734 0.3888482896465992 0.20789697559668838
 0.17314132666951645 0.28824543084441473 0.04916209403738104 -0.7040393820373605 0.38884828964660334 0.20789697559670003 0.38884828964665136 0.20789697559675924
 0.3888482896465677 0.20789697559662734 0.38884828964660334 0.2078969755967 0.07012589170920554 -0.7062110153391433 0.1521775289974957 0.29041706414608637
 0.3888482896465989 0.20789697559668824 0.3888482896466511 0.20789697559675915 0.15217752899749565 0.2904170641460862 0.07012589170935911 -0.7062110153390492
134000000.0 0.04667756846668592 -0.7033738781579165 0.17433593969583222 0.2884443210375053 0.3894932459186605 0.20746477856030882 0.38949324591869205 0.20746477856036982
 0.17433593969583216 0.28844432103750517 0.04667756846687909 -0.7033738781578124 0.3894932459186962 0.2074647785603814 0.3894932459187444 0.20746477856044065
 0.38949324591866036 0.20746477856030873 0.3894932459186963 0.20746477856038134 0.0676249364013332 -0.7056225344091897 0.15338857176118192 0.2906929772887713
 0.3894932459186919 0.20746477856036966 0.3894932459187442 0.20746477856044057 0.1533885717611819 0.2906929772887712 0.06762493640148702 -0.7056225344090956
134500000.0 0.04420671137252923 -0.7027030979010442 0.17552702842135268 0.28863689137121595 0.3901331301029784 0.2070331032650179 0.3901331301030101 0.207033103265079
 0.17552702842135265 0.2886368913712159 0.04420671137272277 -0.7027030979009402 0.3901331301030143 0.2070331032650906 0.3901331301030629 0.20703310326514995
 0.3901331301029781 0.2070331032650179 0.39013313010301437 0.2070331032650906 0.06513714869403368 -0.705028336215131 0.15459659109984514 0.29096212968529567
 0.3901331301030099 0.20703310326507884 0.3901331301030626 0.2070331032651498 0.15459659109984503 0.2909621296852954 0.06513714869418784 -0.705028336215037
135000000.0 0.04174945402836985 -0.70202714390291 0.17671456869232507 0.2888232069694478 0.3907679886395716 0.20660196846683543 0.3907679886396035 0.20660196846689663
 0.1767145686923251 0.2888232069694478 0.0417494540285636 -0.7020271439028061 0.39076798863960777 0.2066019684669082 0.3907679886396566 0.20660196846696752
 0.3907679886395713 0.20660196846683548 0.3907679886396078 0.20660196846690831 0.06266246749372013 -0.7044285221820634 0.15580155522697178 0.29122458524859457
 0.3907679886396033 0.20660196846689646 0.3907679886396561 0.20660196846696738 0.1558015552269716 0.29122458524859435 0.06266246749387457 -0.7044285221819697
135500000.0 0.039305727704485934 -0.7013461174324969 0.17789853720321616 0.2890033325877363 0.3913978675460676 0.20617139242248556 0.39139786754609984 0.20617139242254678
 0.17789853720321602 0.28900333258773614 0.03930572770468019 -0.7013461174323933 0.39139786754610406 0.2061713924225584 0.39139786754615313 0.20617139242261778
 0.3913978675460674 0.20617139242248553 0.39139786754610434 0.20617139242255844 0.060200831640602775 -0.7038231924589282 0.15700343326709643 0.29148040761416055
 0.39139786754609956 0.20617139242254667 0.39139786754615297 0.2061713924226177 0.1570034332670963 0.2914804076141604 0.060200831640757464 -0.7038231924588344
136000000.0 0.03687546367783517 -0.7006601184073381 0.17907891148203672 0.289177332608094 0.39202281241998244 0.205741392899728 0.39202281242001497 0.20574139289978943
 0.17907891148203664 0.2891773326080938 0.03687546367802972 -0.7006601184072349 0.39202281242001935 0.20574139289980095 0.39202281242006853 0.20574139289986038
 0.39202281241998216 0.20574139289972798 0.3920228124200194 0.20574139289980095 0.0577521799184236 -0.7032124459322905 0.15820219524144502 0.29172966013303914
 0.39202281242001463 0.20574139289978918 0.39202281242006837 0.20574139289986024 0.15820219524144497 0.2917296601330391 0.05775217991857884 -0.7032124459321971
136500000.0 0.03445859324184061 -0.6999692454090116 0.18025566987582484 0.28934527103412355 0.3926428684410853 0.20531198718755075 0.39264286844111795 0.20531198718761204
 0.18025566987582478 0.28934527103412344 0.034458593242035485 -0.6999692454089087 0.39264286844112256 0.20531198718762375 0.3926428684411718 0.205311987187683
 0.392642868441085 0.20531198718755053 0.3926428684411225 0.20531198718762367 0.055316451063955364 -0.7025963802400123 0.1593978120537069 0.29197240586511686
 0.39264286844111773 0.20531198718761187 0.39264286844117163 0.20531198718768287 0.1593978120537069 0.2919724058651168 0.05531645106411074 -0.7025963802399191
137000000.0 0.032055047715918016 -0.6992735956985057 0.18142879153628874 0.28950721148639164 0.3932580803738143 0.20488319210616454 0.39325808037384735 0.2048831921062259
 0.18142879153628869 0.2895072114863915 0.032055047716113 -0.699273595698403 0.39325808037385174 0.20488319210623754 0.3932580803739015 0.20488319210629685
 0.3932580803738141 0.20488319210616449 0.3932580803738519 0.20488319210623762 0.052893583776264644 -0.7019750917848127 0.160590255475939 0.2922087075726916
 0.393258080373847 0.20488319210622577 0.3932580803739011 0.2048831921062967 0.1605902554759388 0.2922087075726914 0.05289358377642022 -0.7019750917847195
137500000.0 0.029664758454744262 -0.69857326523145 0.18259825640561 0.28966321719805627 0.39386849256974016 0.20445502401680501 0.39386849256977347 0.20445502401686647
 0.18259825640560992 0.2896632171980562 0.029664758454939613 -0.6985732652313474 0.3938684925697778 0.20445502401687818 0.3938684925698279 0.20445502401693755
 0.39386849256973994 0.20445502401680501 0.39386849256977796 0.20445502401687823 0.05048351672575009 -0.7013486757477199 0.16177949813460088 0.2924386277143191
 0.39386849256977324 0.2044550240168664 0.3938684925698276 0.20445502401693735 0.16177949813460074 0.2924386277143189 0.05048351672590615 -0.7013486757476269
138000000.0 0.027287656857278225 -0.6978683486732162 0.18376404520240794 0.2898133510107437 0.39447414897007393 0.20402749883134516 0.39447414897010735 0.2040274988314067
 0.18376404520240783 0.2898133510107435 0.02728765685747401 -0.697868348673114 0.394474148970112 0.20402749883141846 0.39447414897016214 0.20402749883147772
 0.3944741489700737 0.2040274988313451 0.3944741489701122 0.20402749883141844 0.04808618856295669 -0.700717226101412 0.16296551349672622 0.29266222843893214
 0.39447414897010713 0.20402749883140653 0.394474148970162 0.2040274988314776 0.16296551349672608 0.29266222843893197 0.048086188563112836 -0.7007172261013191
138500000.0 0.024923674375534596 -0.6971589394138857 0.18492613940786518 0.2899576753706645 0.39507509310821676 0.20360063202172013 0.3950750931082505 0.2036006320217817
 0.18492613940786506 0.2899576753706644 0.02492367437573063 -0.6971589394137834 0.39507509310825517 0.2036006320217935 0.39507509310830546 0.20360063202185272
 0.3950750931082166 0.20360063202172013 0.39507509310825517 0.20360063202179346 0.0457015379271696 -0.7000808356234486 0.164148275856227 0.2928795715802203
 0.3950750931082502 0.20360063202178155 0.3950750931083053 0.2036006320218526 0.16414827585622688 0.29287957158022015 0.04570153792732608 -0.7000808356233559
139000000.0 0.022572742523117237 -0.6964451295830837 0.18608452125201652 0.29009625232496594 0.3956713681123493 0.20317443862916912 0.3956713681123834 0.20317443862923087
 0.1860845212520165 0.2900962523249659 0.02257274252331385 -0.6964451295829817 0.395671368112388 0.20317443862924253 0.3956713681124386 0.2031744386293019
 0.39567136811234915 0.2031744386291691 0.395671368112388 0.2031744386292425 0.04332950345479378 -0.699439595909392 0.16532776032033683 0.2930907186512669
 0.3956713681123832 0.20317443862923068 0.39567136811243836 0.20317443862930176 0.16532776032033678 0.2930907186512668 0.04332950345495077 -0.6994395959092994
139500000.0 0.020234792883519332 -0.6957270100646835 0.18723917370019863 0.2902291435183096 0.396263016708057 0.20274893327329793 0.39626301670809133 0.2027489332733596
 0.18723917370019855 0.29022914351830953 0.0202347928837158 -0.6957270100645817 0.3962630167080959 0.20274893327337137 0.39626301670814684 0.2027489332734306
 0.3962630167080568 0.202748933273298 0.3962630167080961 0.20274893327337135 0.04097002378752468 -0.6987935973858178 0.16650394279618982 0.2932957308394369
 0.3962630167080911 0.2027489332733595 0.3962630167081465 0.2027489332734305 0.1665039427961897 0.2932957308394367 0.04097002378768187 -0.6987935973857257
140000000.0 0.017909757118188787 -0.6950046705113759 0.1883900804396636 0.290356410189673 0.39685008122098964 0.20232413016096307 0.39685008122102394 0.20232413016102488
 0.1883900804396636 0.2903564101896729 0.017909757118385505 -0.6950046705112745 0.3968500812210288 0.20232413016103648 0.39685008122107995 0.20232413016109574
 0.39685008122098936 0.202324130160963 0.39685008122102877 0.20232413016103645 0.038623037580308765 -0.6981429293232182 0.16767679997754 0.293494669001508
 0.3968500812210239 0.20232413016102477 0.3968500812210796 0.20232413016109574 0.16767679997753998 0.2934946690015079 0.038623037580466354 -0.6981429293231259
140500000.0 0.015597566974373357 -0.694278199359108 0.18953722586635435 0.2904781131693651 0.3974326035795515 0.20190004309498408 0.39743260357958615 0.20190004309504578
 0.18953722586635433 0.29047811316936495 0.015597566974570713 -0.6942781993590067 0.3974326035795911 0.20190004309505752 0.3974326035796424 0.20190004309511678
 0.39743260357955124 0.20190004309498397 0.3974326035795912 0.2019000430950576 0.03628848350910632 -0.6974876798487899 0.16884630933161812 0.2936875936590399
 0.397432603579586 0.20190004309504564 0.3974326035796421 0.20190004309511675 0.16884630933161807 0.2936875936590398 0.0362884835092638 -0.6974876798486979
141000000.0 0.013298154292740998 -0.6935476838413893 0.19068059507184376 0.2905943128762503 0.3980106253176226 0.20147668548268272 0.3980106253176576 0.20147668548274464
 0.19068059507184373 0.29059431287625026 0.013298154292938642 -0.6935476838412883 0.39801062531766246 0.20147668548275627 0.3980106253177141 0.2014766854828156
 0.3980106253176224 0.20147668548268266 0.3980106253176625 0.2014766854827563 0.033966300278450635 -0.6968279359591192 0.17001244908613075 0.29387456499397285
 0.3980106253176573 0.20147668548274436 0.39801062531771364 0.2014766854828154 0.17001244908613064 0.2938745649939727 0.03396630027860856 -0.6968279359590274
141500000.0 0.011011451014784374 -0.6928132100034667 0.1918201738304357 0.29070506931517825 0.39858418757730446 0.20105407034425804 0.3985841875773397 0.20105407034431994
 0.19182017383043568 0.2907050693151781 0.011011451014982437 -0.6928132100033658 0.3985841875773447 0.20105407034433162 0.3985841875773964 0.20105407034439088
 0.3985841875773043 0.2010540703442579 0.3985841875773448 0.20105407034433162 0.031656426628818395 -0.6961637835327515 0.17117519821639832 0.29405564284445584
 0.3985841875773395 0.20105407034431977 0.3985841875773963 0.20105407034439082 0.17117519821639826 0.2940556428444558 0.03165642662897671 -0.6961637835326598
142000000.0 0.008737389190015358 -0.6920748627163658 0.19295594858642878 0.2908104420746082 0.3991533311116923 0.20063221032099351 0.3991533311117276 0.20063221032105547
 0.19295594858642875 0.2908104420746081 0.008737389190213777 -0.6920748627162651 0.39915333111173285 0.20063221032106726 0.3991533311117846 0.20063221032112652
 0.39915333111169204 0.2006322103209935 0.3991533311117328 0.20063221032106723 0.029358801343804506 -0.6954953073426552 0.17233453643263627 0.29423088670089026
 0.39915333111172735 0.20063221032105535 0.3991533311117843 0.20063221032112646 0.17233453643263616 0.29423088670089015 0.029358801343963004 -0.6954953073425634
142500000.0 0.0064759009829487 -0.6913327256908037 0.194087906441543 0.29091049032442556 0.3997180962876681 0.20021111768330443 0.39971809628770383 0.20021111768336655
 0.19408790644154297 0.29091049032442545 0.006475900983147202 -0.6913327256907031 0.3997180962877089 0.2002111176833782 0.399718096287761 0.20021111768343758
 0.3997180962876679 0.20021111768330435 0.39971809628770893 0.20021111768337818 0.027073363257111866 -0.694822591068574 0.1734904441673765 0.2944003557021886
 0.39971809628770355 0.2002111176833663 0.39971809628776084 0.20021111768343736 0.17349044416737638 0.2944003557021885 0.027073363257270798 -0.6948225910684825
143000000.0 0.004226918679886385 -0.6905868814909686 0.1952160351425079 0.2910052728139465 0.4002785230887164 0.1997908043386269 0.4002785230887522 0.19979080433868895
 0.1952160351425079 0.29100527281394645 0.004226918680085465 -0.690586881490868 0.4002785230887575 0.1997908043387008 0.40027852308880985 0.19979080433875995
 0.40027852308871625 0.1997908043386268 0.4002785230887576 0.19979080433870078 0.024800051259359038 -0.6941457173092719 0.1746429025630317 0.2945641086322426
 0.40027852308875206 0.19979080433868884 0.4002785230888096 0.19979080433876004 0.17464290256303158 0.2945641086322425 0.024800051259518084 -0.6941457173091802
143500000.0 0.0019903746955011294 -0.6898374115481677 0.1963403230688121 0.29109484787010037 0.4008346511177569 0.19937128183915065 0.400834651117793 0.1993712818392127
 0.19634032306881216 0.2910948478701003 0.001990374695700073 -0.6898374115480675 0.4008346511177982 0.19937128183922437 0.40083465111785066 0.1993712818392836
 0.40083465111775657 0.19937128183915057 0.40083465111779815 0.19937128183922442 0.022538804304707293 -0.6934647675946674 0.1757918934596023 0.294722203916593
 0.4008346511177927 0.19937128183921254 0.4008346511178504 0.1993712818392835 0.17579189345960228 0.2947222039165928 0.022538804304866544 -0.6934647675945761
144000000.0 -0.00023379842077583433 -0.6890843961743492 0.1974607592206149 0.29117927339578853 0.4013865195999934 0.1989525613893979 0.4013865196000299 0.19895256138946027
 0.1974607592206149 0.2911792733957885 -0.0002337984205764094 -0.6890843961742494 0.4013865196000351 0.1989525613894719 0.401386519600088 0.19895256138953116
 0.4013865195999932 0.198952561389398 0.4013865196000351 0.19895256138947187 0.020289561417310212 -0.6927798223978624 0.17693739938252523 0.2948746996192946
 0.4013865196000296 0.19895256138946 0.40138651960008764 0.198952561389531 0.17693739938252515 0.2948746996192944 0.020289561417470018 -0.6927798223977715
144500000.0 -0.002445667978553914 -0.6883279145754883 0.19857733320681775 0.29125860686841354 0.40193416738578075 0.1985346538536557 0.4019341673858175 0.1985346538537179
 0.1985773332068177 0.2912586068684134 -0.0024456679783543826 -0.6883279145753886 0.4019341673858227 0.19853465385372973 0.40193416738587573 0.19853465385378882
 0.4019341673857806 0.19853465385365568 0.4019341673858228 0.19853465385372968 0.018052261697594427 -0.6920909611470588 0.17807940353066587 0.2950216534399768
 0.40193416738581716 0.1985346538537177 0.4019341673858754 0.1985346538537887 0.17807940353066568 0.29502165343997666 0.018052261697754344 -0.6920909611469679
145000000.0 -0.004645301140472716 -0.6875680448648473 0.1996900352332959 0.29133290533857203 0.40247763295350075 0.1981175697632565 0.40247763295353756 0.19811756976331865
 0.19969003523329595 0.29133290533857203 -0.004645301140272788 -0.6875680448647478 0.402477632953543 0.1981175697633305 0.4024776329535962 0.19811756976338957
 0.4024776329535006 0.19811756976325648 0.40247763295354305 0.19811756976333048 0.015826844328367264 -0.6913982622373699 0.1792178897644523 0.2951631227110877
 0.40247763295353745 0.19811756976331849 0.40247763295359595 0.19811756976338954 0.17921788976445216 0.29516312271108763 0.015826844328527316 -0.6913982622372793
145500000.0 -0.0068327649163714204 -0.686804864076105 0.20079885609129003 0.2914022254289086 0.4030169544124527 0.19770131932371782 0.40301695441248975 0.19770131932378013
 0.20079885609129008 0.2914022254289086 -0.006832764916171415 -0.6868048640760056 0.40301695441249524 0.19770131932379187 0.4030169544125487 0.197701319323851
 0.4030169544124525 0.19770131932371782 0.4030169544124953 0.1977013193237918 0.013613248580762235 -0.6907018030425242 0.18035284259415282 0.2952991643953207
 0.4030169544124896 0.1977013193237799 0.4030169544125483 0.19770131932385085 0.18035284259415268 0.2952991643953206 0.013613248580922471 -0.6907018030424334
146000000.0 -0.009008126157638078 -0.6860384481763586 0.20190378714595586 0.29146662333312295 0.403552169505753 0.1972859124217383 0.4035521695057903 0.19728591242180057
 0.20190378714595578 0.2914666233331228 -0.00900812615743795 -0.6860384481762594 0.40355216950579553 0.19728591242181237 0.40355216950584916 0.1972859124218715
 0.40355216950575273 0.19728591242173832 0.4035521695057957 0.19728591242181232 0.011411413820019048 -0.6900016599264597 0.18148424716829487 0.2954298350832169
 0.4035521695057901 0.19728591242180046 0.40355216950584905 0.1972859124218714 0.18148424716829475 0.2954298350832168 0.011411413820179775 -0.6900016599263692
146500000.0 -0.011171451551733312 -0.6852688720789959 0.2030048203250718 0.29152615481512834 0.40408331561324223 0.19687135863205513 0.40408331561327987 0.19687135863211744
 0.20300482032507178 0.2915261548151283 -0.011171451551532659 -0.6852688720788971 0.40408331561328537 0.1968713586321291 0.4040833156133394 0.19687135863218838
 0.4040833156132419 0.19687135863205502 0.4040833156132853 0.19687135863212915 0.009221279511107345 -0.6892979082548145 0.18261208926222725 0.29555519099093996
 0.40408331561327965 0.19687135863211722 0.404083315613339 0.19687135863218821 0.18261208926222725 0.2955551909909398 0.009221279511268362 -0.6892979082547244
147000000.0 -0.013322807616884688 -0.6844962096564402 0.20410194810790433 0.29158087520835485 0.4046104297544013 0.19645766722416433 0.4046104297544391 0.19645766722422683
 0.20410194810790427 0.2915808752083548 -0.013322807616683585 -0.6844962096563416 0.4046104297544446 0.19645766722423857 0.40461042975449885 0.19645766722429767
 0.40461042975440115 0.19645766722416447 0.4046104297544447 0.1964576672242386 0.007042785224192442 -0.6885906224063087 0.18373635526682341 0.2956752879582164
 0.40461042975443895 0.19645766722422678 0.4046104297544985 0.19645766722429772 0.1837363552668233 0.2956752879582163 0.007042785224353809 -0.6885906224062184
147500000.0 -0.015462260696948603 -0.6837205337527675 0.2051951635142286 0.29163083941519446 0.40513354859127093 0.19604484716890935 0.4051335485913088 0.19604484716897183
 0.20519516351422856 0.29163083941519435 -0.015462260696747407 -0.6837205337526693 0.4051335485913144 0.19604484716898357 0.4051335485913687 0.19604484716904264
 0.40513354859127065 0.19604484716890927 0.4051335485913145 0.19604484716898352 0.004875870639949403 -0.6878798757840197 0.18485703217732685 0.2957901814464392
 0.4051335485913086 0.19604484716897166 0.4051335485913685 0.1960448471690426 0.1848570321773268 0.2957901814464392 0.004875870640110943 -0.6878798757839295
148000000.0 -0.017589876956436996 -0.6829419161961998 0.20628446009350568 0.29167610190657955 0.4056527084313762 0.1956329071449334 0.40565270843141454 0.19563290714499582
 0.2062844600935056 0.2916761019065795 -0.017589876956235543 -0.6829419161961015 0.40565270843142 0.19563290714500758 0.40565270843147466 0.19563290714506673
 0.405652708431376 0.1956329071449334 0.4056527084314201 0.1956329071450076 0.0027204755547264605 -0.6871657408265542 0.18597410758233843 0.295899926536927
 0.4056527084314142 0.19563290714499562 0.40565270843147433 0.1956329071450665 0.1859741075823383 0.2958999265369267 0.0027204755548881675 -0.6871657408264645
148500000.0 -0.01970572237570246 -0.6821604278114665 0.20736983191421246 0.2917167167216976 0.40616794523065525 0.19522185554500862 0.40616794523069366 0.19522185554507113
 0.20736983191421238 0.2917167167216975 -0.019705722375500896 -0.6821604278113684 0.4061679452306994 0.19522185554508292 0.40616794523075406 0.195221855545142
 0.40616794523065497 0.19522185554500857 0.4061679452306994 0.19522185554508284 0.0005765398855637147 -0.6864482890191134 0.18708756965294232 0.2960045779293373
 0.4061679452306935 0.19522185554507096 0.4061679452307538 0.19522185554514185 0.18708756965294226 0.2960045779293373 0.0005765398857258033 -0.6864482890190237
149000000.0 -0.02180986274628144 -0.6813761384320467 0.20845127355332674 0.2917527374678288 0.4066792945963873 0.19481170048223392 0.4066792945964261 0.19481170048229637
 0.2084512735533267 0.2917527374678287 -0.02180986274607953 -0.6813761384319488 0.4066792945964317 0.19481170048230817 0.4066792945964868 0.1948117004823672
 0.40667929459638713 0.19481170048223387 0.4066792945964318 0.19481170048230817 -0.0015559963249346023 -0.6857275909044531 0.18819740713197583 0.296104189940228
 0.4066792945964258 0.19481170048229626 0.40667929459648644 0.1948117004823671 0.18819740713197577 0.2961041899402279 -0.00155599632477242 -0.6857275909043634
149500000.0 -0.023902363666390265 -0.6805891169122823 0.209528780085963 0.291784217320311 0.40718679179012324 0.19440244979611115 0.4071867917901622 0.19440244979617385
 0.209528780085963 0.29178421732031096 -0.023902363666187986 -0.6805891169121845 0.4071867917901679 0.19440244979618557 0.40718679179022316 0.19440244979624458
 0.40718679179012296 0.19440244979611124 0.4071867917901679 0.19440244979618557 -0.0036771929038660572 -0.68500371609374 0.18930360932343496 0.2961988165017617
 0.40718679179016193 0.1944024497961736 0.4071867917902227 0.19440244979624446 0.18930360932343485 0.29619881650176155 -0.003677192903703534 -0.6850037160936506
150000000.0 -0.025983290536570083 -0.6797994311393686 0.21060234707516046 0.2918112090226222 0.4076904717306141 0.19399411105849948 0.40769047173065337 0.19399411105856207
 0.2106023470751604 0.29181120902262203 -0.02598329053636774 -0.679799431139271 0.4076904717306591 0.1939941110585738 0.40769047173071443 0.19399411105863282
 0.407690471730614 0.1939941110584994 0.40769047173065914 0.19399411105857375 -0.0057871095434355166 -0.6842767332773051 0.19040616608202196 0.29628851116055127
 0.407690471730653 0.19399411105856185 0.4076904717307142 0.19399411105863265 0.19040616608202188 0.29628851116055116 -0.0057871095432729044 -0.6842767332772156
150500000.0 -0.028052708555481795 -0.6790071480452209 0.21167197056182108 0.29183376488657825 0.40819036899673933 0.1935866915794484 0.40819036899677874 0.19358669157951117
 0.21167197056182105 0.29183376488657825 -0.028052708555279054 -0.6790071480451235 0.4081903689967845 0.1935866915795229 0.40819036899684014 0.1935866915795819
 0.4081903689967392 0.1935866915794484 0.40819036899678457 0.1935866915795228 -0.007885805796495539 -0.6835467102352908 0.1915050678028308 0.2963733270766409
 0.4081903689967786 0.19358669157951094 0.40819036899683997 0.1935866915795817 0.19150506780283072 0.29637332707664077 -0.007885805796332407 -0.6835467102352016
151000000.0 -0.030110682715839707 -0.6782123336182184 0.21273764705479611 0.29185193679264254 0.4086865178304304 0.19318019841291562 0.40868651783047016 0.1931801984129783
 0.212737647054796 0.29185193679264254 -0.03011068271563685 -0.6782123336181213 0.40868651783047594 0.1931801984129901 0.4086865178305317 0.19318019841304915
 0.4086865178304303 0.19318019841291567 0.408686517830476 0.19318019841299003 -0.009973341072217402 -0.6828137138481996 0.19260030541116976 0.2964533170226167
 0.4086865178304699 0.19318019841297812 0.4086865178305315 0.19318019841304893 0.19260030541116968 0.2964533170226164 -0.009973341072054016 -0.6828137138481106
151500000.0 -0.03215727780048982 -0.6774150529148248 0.21379937352112077 0.2918657761903441 0.409178952139593 0.19277463836236897 0.409178952139633 0.1927746383624318
 0.21379937352112066 0.2918657761903438 -0.03215727780028677 -0.677415052914728 0.4091789521396386 0.19277463836244343 0.40917895213969474 0.19277463836250233
 0.40917895213959266 0.19277463836236894 0.40917895213963884 0.1927746383624434 -0.01204977463189519 -0.6820778101073358 0.19369187035252183 0.2965285333828477
 0.4091789521396327 0.19277463836243156 0.4091789521396946 0.19277463836250236 0.19369187035252175 0.2965285333828475 -0.01204977463173143 -0.6820778101072469
152000000.0 -0.03419255837862266 -0.6766153700710896 0.2148571473763955 0.2918753340987973 0.4096677055010218 0.19237001798627548 0.40966770550106185 0.19237001798633813
 0.21485714737639544 0.29187533409879723 -0.03419255837841912 -0.676615370070993 0.40966770550106785 0.19237001798634998 0.409667705501124 0.1923700179864088
 0.40966770550102155 0.19237001798627543 0.40966770550106785 0.19237001798634992 -0.014115165584872563 -0.6813390641251486 0.19477975458264124 0.2965990281528489
 0.4096677055010616 0.19237001798633813 0.40966770550112375 0.19237001798640882 0.19477975458264116 0.2965990281528489 -0.014115165584708829 -0.6813390641250597
152500000.0 -0.036216588802121114 -0.6758133483140257 0.21591096647531244 0.29188066110732525 0.41015281116331204 0.1919663436034802 0.41015281116335234 0.1919663436035429
 0.21591096647531238 0.2918806611073252 -0.036216588801917304 -0.6758133483139293 0.4101528111633584 0.19196634360355472 0.4101528111634148 0.19196634360361362
 0.4101528111633119 0.19196634360348017 0.4101528111633585 0.1919663436035546 -0.016169572884597964 -0.6805975401454725 0.19586395055778533 0.2966648529387647
 0.41015281116335217 0.19196634360354278 0.4101528111634146 0.1919663436036135 0.19586395055778522 0.2966648529387646 -0.016169572884433957 -0.6805975401453837
153000000.0 -0.03822943320203911 -0.6750090499728688 0.21696082910232642 0.29188180737617764 0.410634302049764 0.19156362129847657 0.4106343020498046 0.1915636212985393
 0.21696082910232636 0.2918818073761776 -0.038229433201835396 -0.6750090499727727 0.4106343020498105 0.19156362129855103 0.4106343020498671 0.19156362129860993
 0.4106343020497637 0.19156362129847657 0.41063430204981055 0.19156362129855106 -0.01821305532479852 -0.6798533015536666 0.1969444512250816 0.29672605895696813
 0.4106343020498042 0.1915636212985392 0.41063430204986684 0.19156362129860988 0.1969444512250814 0.29672605895696796 -0.01821305532463417 -0.679853301553578
153500000.0 -0.040231155485210494 -0.6742025364902183 0.218006733962468 0.29187882263734205 0.4111122107612784 0.19116185692656965 0.41111221076131915 0.19116185692663232
 0.218006733962468 0.29187882263734205 -0.04023115548500597 -0.6742025364901221 0.41111221076132537 0.19116185692664434 0.4111122107613821 0.19116185692670315
 0.4111122107612781 0.1911618569265695 0.41111221076132526 0.19116185692664425 -0.0202456715357746 -0.6791064108866565 0.19802125001302795 0.29678269703377286
 0.41111221076131904 0.1911618569266323 0.4111122107613819 0.19116185692670312 0.19802125001302792 0.2967826970337728 -0.0202456715356099 -0.6791064108865681
154000000.0 -0.04222181933097884 -0.6733938684330556 0.2190486801722988 0.2918717561954472 0.4115865695792469 0.19076105611893657 0.41158656957928785 0.1907610561189994
 0.21904868017229884 0.2918717561954471 -0.04222181933077439 -0.6733938684329599 0.41158656957929396 0.1907610561190111 0.41158656957935097 0.19076105611906988
 0.4115865695792467 0.19076105611893657 0.4115865695792941 0.19076105611901115 -0.022267479980811085 -0.678356929842871 0.199094340822127 0.2968348176052553
 0.4115865695792877 0.1907610561189992 0.4115865695793508 0.19076105611906982 0.1990943408221269 0.2968348176052552 -0.022267479980646505 -0.678356929842783
154500000.0 -0.044201488188055305 -0.6725831055036496 0.22008666725100676 0.29186065692875074 0.4120574104684308 0.19036122428758276 0.41205741046847216 0.19036122428764543
 0.22008666725100678 0.2918606569287507 -0.0442014881878507 -0.6725831055035542 0.41205741046847827 0.19036122428765723 0.4120574104685356 0.19036122428771604
 0.41205741046843064 0.1903612242875827 0.41205741046847844 0.1903612242876573 -0.024278538952703398 -0.6776049192920867 0.20016371801565072 0.2968824707171806
 0.41205741046847183 0.1903612242876452 0.4120574104685353 0.19036122428771587 0.20016371801565058 0.2968824707171804 -0.02427853895253863 -0.677604919291999
155000000.0 -0.046170225271492296 -0.6717703065503419 0.22112069511164 0.291845573290212 0.4125247650798325 0.18996236663019886 0.41252476507987396 0.1899623666302617
 0.22112069511163998 0.2918455732902121 -0.04617022527128737 -0.6717703065502463 0.4125247650798803 0.18996236663027352 0.41252476507993757 0.1899623666303322
 0.41252476507983227 0.18996236663019886 0.4125247650798802 0.18996236663027344 -0.02627890657039411 -0.6768504392851685 0.2012293764105375 0.29692570602503143
 0.4125247650798738 0.1899623666302616 0.41252476507993724 0.18996236663033217 0.2012293764105374 0.29692570602503127 -0.026278906570228827 -0.6768504392850807
155500000.0 -0.048128093559775334 -0.6709555295782157 0.22215076405247847 0.2918265533086452 0.41298866475355445 0.18956448813492013 0.4129886647535961 0.18956448813498297
 0.2221507640524784 0.291826553308645 -0.04812809355957015 -0.6709555295781205 0.4129886647536025 0.18956448813499474 0.41298866475366 0.18956448813505336
 0.41298866475355417 0.18956448813492 0.4129886647536025 0.18956448813499466 -0.02826864077572009 -0.6760935490637144 0.20229131126841896 0.2969645727941364
 0.4129886647535959 0.1895644881349828 0.41298866475365986 0.18956448813505336 0.20229131126841887 0.29696457279413635 -0.028268640775554632 -0.6760935490636267
156000000.0 -0.050075155792030326 -0.6701388317596518 0.22317687474854225 0.2918036445899486 0.41344914052164966 0.18916759358498672 0.4134491405216916 0.18916759358504975
 0.22317687474854228 0.2918036445899487 -0.050075155791824956 -0.6701388317595568 0.41344914052169784 0.18916759358506144 0.4134491405217559 0.18916759358512023
 0.4134491405216495 0.18916759358498686 0.413449140521698 0.18916759358506147 -0.030247799330267618 -0.6753343070696036 0.2033495182867753 0.2969991198998935
 0.41344914052169146 0.1891675935850496 0.4134491405217555 0.18916759358512006 0.2033495182867752 0.2969991198998932 -0.030247799330101813 -0.6753343070695161
156500000.0 -0.0520114744653412 -0.6693202694447662 0.22419902824323343 0.2917768943184118 0.4139062231109593 0.18877168756331325 0.41390622311100156 0.18877168756337612
 0.22419902824323337 0.29177689431841186 -0.052011474465135356 -0.6693202694446709 0.41390622311100783 0.18877168756338805 0.4139062231110659 0.1887716875634467
 0.4139062231109591 0.1887716875633134 0.4139062231110079 0.18877168756338808 -0.03221643981233142 -0.6745727709544471 0.2044039935902194 0.29702939582808585
 0.41390622311100134 0.18877168756337595 0.4139062231110656 0.18877168756344648 0.20440399359021932 0.29702939582808563 -0.032216439812165744 -0.6745727709543601
157000000.0 -0.05393711183217791 -0.6684998981717372 0.22521722594011223 0.2917463492580888 0.41435994294593803 0.18837677445696088 0.4143599429459803 0.18837677445702367
 0.22521722594011218 0.29174634925808884 -0.053937111831971946 -0.6684998981716422 0.41435994294598677 0.18837677445703568 0.414359942946045 0.1883767744570942
 0.4143599429459377 0.1883767744569608 0.41435994294598677 0.18837677445703555 -0.03417461961397727 -0.673808997588943 0.2054547337219073 0.2970554486752873
 0.41435994294598016 0.18837677445702358 0.4143599429460446 0.1883767744570941 0.20545473372190715 0.2970554486752872 -0.03417461961381115 -0.6738089975888557
157500000.0 -0.05585212989793083 -0.6676777726770172 0.2262314695948056 0.2917120557542467 0.4148103301514674 0.187982858461523 0.4148103301515101 0.1879828584615859
 0.2262314695948055 0.29171205575424647 -0.05585212989772479 -0.667677772676923 0.4148103301515165 0.18798285846159754 0.41481033015157487 0.1879828584616562
 0.4148103301514671 0.18798285846152285 0.41481033015151664 0.18798285846159754 -0.03612239593820455 -0.6730430430721333 0.20650173563507485 0.29707732614935517
 0.4148103301515098 0.18798285846158574 0.41481033015157476 0.18798285846165622 0.2065017356350748 0.2970773261493551 -0.03612239593803793 -0.6730430430720461
158000000.0 -0.05775659041854896 -0.6668539469054344 0.22724176130704477 0.2916740597348744 0.41525741455565685 0.18758994358541844 0.41525741455569953 0.18758994358548145
 0.2272417613070446 0.2916740597348743 -0.057756590418342774 -0.6668539469053403 0.415257414555706 0.18758994358549325 0.41525741455576465 0.18758994358555187
 0.41525741455565646 0.18758994358541847 0.41525741455570603 0.18758994358549316 -0.03805982579620816 -0.6722749627405716 0.20754499668469947 0.2970950755700043
 0.41525741455569926 0.1875899435854813 0.41525741455576437 0.18758994358555178 0.2075449966846994 0.29709507557000414 -0.038059825796041606 -0.6722749627404845
158500000.0 -0.059650554898281326 -0.6660284740201795 0.2282481035128334 0.291632406712259 0.41570122569262813 0.18719803365409943 0.4157012256926714 0.18719803365416235
 0.22824810351283342 0.29163240671225893 -0.05965055489807479 -0.6660284740200855 0.4157012256926778 0.18719803365417403 0.41570122569273665 0.18719803365423268
 0.41570122569262796 0.18719803365409932 0.4157012256926778 0.187198033654174 -0.03998696600473716 -0.6715048111773915 0.20858451461928496 0.29710874386946373
 0.41570122569267093 0.18719803365416224 0.4157012256927362 0.18719803365423257 0.20858451461928476 0.29710874386946357 -0.03998696600457016 -0.6715048111773045
159000000.0 -0.06153408458751567 -0.6652014064126859 0.22925049897674316 0.2915871417846211 0.41614179280529007 0.18680713231417215 0.41614179280533337 0.1868071323142351
 0.2292504989767432 0.2915871417846211 -0.06153408458730894 -0.6652014064125921 0.4161417928053401 0.18680713231424675 0.416141792805399 0.1868071323143053
 0.41614179280528996 0.1868071323141721 0.41614179280534 0.18680713231424673 -0.04190387318354617 -0.6707326422212831 0.20962028757276926 0.29711837759321125
 0.41614179280533325 0.18680713231423504 0.4161417928053988 0.1868071323143053 0.2096202875727693 0.29711837759321125 -0.04190387318337916 -0.6707326422211964
159500000.0 -0.06340724048071733 -0.6643727957123972 0.2302489507843353 0.2915383096378091 0.41657914484809483 0.18641724303743487 0.4165791448481383 0.1864172430374978
 0.2302489507843352 0.29153830963780897 -0.0634072404805105 -0.6643727957123036 0.4165791448481449 0.18641724303750956 0.416579144848204 0.18641724303756807
 0.41657914484809444 0.18641724303743487 0.4165791448481449 0.18641724303750956 -0.04381060375294096 -0.6699585089753777 0.2106523140565543 0.2971240229007823
 0.416579144848138 0.1864172430374976 0.4165791448482039 0.1864172430375679 0.21065231405655427 0.2971240229007822 -0.043810603752773875 -0.6699585089752914
160000000.0 -0.06527008331446103 -0.6635426927964287 0.2312434623347067 0.2914859545470475 0.4170133104897805 0.18602836912483192 0.4170133104898243 0.18602836912489493
 0.2312434623347067 0.2914859545470475 -0.06527008331425369 -0.6635426927963352 0.4170133104898309 0.18602836912490675 0.4170133104898904 0.1860283691249652
 0.41701331048978035 0.1860283691248318 0.4170133104898308 0.18602836912490658 -0.04570721393141339 -0.669182463816039 0.21168059295165462 0.29712572556665046
 0.417013310489824 0.1860283691248948 0.4170133104898901 0.18602836912496507 0.21168059295165456 0.2971257255666504 -0.04570721393124568 -0.6691824638159525
160500000.0 -0.06712267356555442 -0.6627111477991166 0.2322340373331609 0.29143012037874294 0.41744431811610005 0.18564051371032914 0.41744431811614374 0.18564051371039206
 0.23223403733316095 0.2914301203787429 -0.06712267356534689 -0.6627111477990232 0.4174443181161507 0.18564051371040385 0.4174443181162102 0.1856405137104622
 0.4174443181160997 0.18564051371032905 0.4174443181161506 0.18564051371040374 -0.04759375973336458 -0.6684045584015612 0.21270512350096654 0.29712353098118016
 0.4174443181161435 0.18564051371039197 0.41744431811620974 0.1856405137104623 0.21270512350096651 0.2971235309811802 -0.04759375973319688 -0.6684045584014748
161000000.0 -0.06896507144925605 -0.6618782101214652 0.23322067978399919 0.2913708505923363 0.41787219583253127 0.1852536797647075 0.4178721958325754 0.18525367976477047
 0.2332206797839993 0.2913708505923363 -0.06896507144904837 -0.661878210121372 0.4178721958325822 0.18525367976478227 0.41787219583264196 0.18525367976484056
 0.41787219583253127 0.18525367976470747 0.4178721958325822 0.18525367976478221 -0.04947029696691658 -0.6676248436807813 0.21372590530165528 0.29711748415164496
 0.41787219583257523 0.1852536797647703 0.4178721958326416 0.1852536797648405 0.21372590530165514 0.2971174841516448 -0.049470296966748824 -0.6676248436806952
161500000.0 -0.07079733691757756 -0.6610439284404833 0.23420339398343382 0.2913081882422073 0.4182969714669744 0.1848678700992816 0.41829697146701883 0.1848678700993446
 0.23420339398343373 0.2913081882422071 -0.0707973369173697 -0.6610439284403903 0.4182969714670255 0.1848678700993563 0.41829697146708555 0.18486787009941472
 0.4182969714669743 0.1848678700992816 0.41829697146702566 0.18486787009935635 -0.05133688123180566 -0.6668433699015943 0.21474293829765737 0.29710762970331106
 0.4182969714670186 0.18486787009934452 0.41829697146708533 0.1848678700994147 0.21474293829765725 0.2971076297033109 -0.051336881231637405 -0.6668433699015083
162000000.0 -0.07261952965767392 -0.6602083507184174 0.2351821845126191 0.2912421759796246 0.41871867257242984 0.18448308736954097 0.41871867257247447 0.184483087369604
 0.23518218451261894 0.29124217597962443 -0.07261952965746597 -0.6602083507183247 0.4187186725724812 0.18448308736961574 0.4187186725725414 0.18448308736967406
 0.41871867257242956 0.18448308736954103 0.41871867257248124 0.18448308736961574 -0.05319356791736059 -0.6660601866193837 0.21575622277230097 0.29709401188058376
 0.41871867257247425 0.18448308736960384 0.41871867257254114 0.18448308736967395 0.21575622277230094 0.2970940118805836 -0.05319356791719224 -0.6660601866192982
162500000.0 -0.07443170909031913 -0.6593715242118814 0.23615705623080083 0.29117285605473986 0.41913732642966106 0.18409933407871595 0.4191373264297058 0.1840993340787791
 0.23615705623080077 0.29117285605473975 -0.07443170909011072 -0.6593715242117888 0.41913732642971274 0.18409933407879084 0.4191373264297732 0.18409933407884913
 0.419137326429661 0.184099334078716 0.4191373264297128 0.18409933407879084 -0.05504041220056179 -0.6652753427053621 0.21676575934103895 0.29707667454821346
 0.4191373264297055 0.18409933407877893 0.41913732642977286 0.1840993340788491 0.21676575934103873 0.29707667454821324 -0.055040412200393095 -0.6652753427052763
163000000.0 -0.0762339343684611 -0.6585334954808789 0.23712801426858277 0.2911002703186255 0.4195529600498411 0.1837166125812727 0.419552960049886 0.18371661258133562
 0.23712801426858263 0.29110027031862534 -0.07623393436825279 -0.6585334954807865 0.419552960049893 0.18371661258134736 0.4195529600499533 0.18371661258140567
 0.41955296004984083 0.18371661258127261 0.41955296004989306 0.18371661258134736 -0.05687746904417844 -0.6644888863548204 0.21777154894429535 0.29705566119255966
 0.41955296004988574 0.18371661258133556 0.4195529600499532 0.18371661258140562 0.2177715489442952 0.2970556611925596 -0.056877469044009706 -0.6644888863547347
163500000.0 -0.07802626437586023 -0.6576943103977264 0.238095064021305 0.29102446022535194 0.41996560017717904 0.18333492508633392 0.4199656001772243 0.183334925086397
 0.23809506402130495 0.2910244602253518 -0.07802626437565141 -0.6576943103976343 0.4199656001772312 0.1833349250864087 0.41996560017729195 0.18333492508646684
 0.41996560017717877 0.183334925086334 0.41996560017723134 0.18333492508640878 -0.0587047931949844 -0.663700865095293 0.21877359284042458 0.2970310149229114
 0.41996560017722406 0.18333492508639682 0.41996560017729156 0.18333492508646687 0.21877359284042444 0.2970310149229112 -0.058704793194815426 -0.6637008650952078
164000000.0 -0.07980875772580313 -0.6568540141558729 0.2390582111425396 0.2909454668341037 0.4203752732915329 0.18295427366103206 0.42037527329157826 0.18295427366109515
 0.2390582111425396 0.29094546683410366 -0.07980875772559425 -0.6568540141557809 0.42037527329158536 0.18295427366110675 0.4203752732916462 0.18295427366116504
 0.42037527329153274 0.18295427366103198 0.42037527329158547 0.18295427366110675 -0.060522439182049796 -0.6629113257946355 0.21977189259878147 0.29700277847285905
 0.42037527329157814 0.182954273661095 0.420375273291646 0.18295427366116498 0.21977189259878138 0.29700277847285894 -0.06052243918188048 -0.6629113257945503
164500000.0 -0.08158147275989579 -0.6560126512786179 0.2400174615376952 0.29086333081133237 0.4207820056110013 0.1825746602337912 0.42078200561104684 0.18257466023385432
 0.2400174615376952 0.29086333081133225 -0.08158147275968672 -0.6560126512785263 0.420782005611054 0.18257466023386593 0.42078200561111506 0.18257466023392416
 0.42078200561100093 0.1825746602337912 0.4207820056110539 0.18257466023386598 -0.0623304613151052 -0.6621203146690134 0.22076645009289986 0.2969709942017206
 0.4207820056110466 0.18257466023385405 0.4207820056111147 0.182574660233924 0.22076645009289977 0.2969709942017204 -0.06233046131493579 -0.6621203146689285
165000000.0 -0.08334446754692815 -0.6551702656277312 0.24097282135773282 0.290778092432943 0.4211858230944983 0.18219608659754316 0.42118582309454417 0.18219608659760622
 0.24097282135773282 0.29077809243294295 -0.08334446754671893 -0.6551702656276396 0.42118582309455127 0.1821960865976179 0.42118582309461255 0.18219608659767597
 0.42118582309449815 0.18219608659754316 0.4211858230945514 0.1821960865976179 -0.06412891368298042 -0.6613278772908086 0.22175726749378036 0.29693570409601333
 0.421185823094544 0.18219608659760606 0.42118582309461233 0.18219608659767597 0.22175726749378027 0.2969357040960131 -0.06412891368281076 -0.6613278772907237
165500000.0 -0.08509779988181412 -0.6543269004119697 0.24192429699299142 0.2906897915865157 0.42158675144431185 0.1818185544128768 0.4215867514443578 0.18181855441293998
 0.24192429699299142 0.29068979158651564 -0.08509779988160462 -0.6543269004118782 0.421586751444365 0.18181855441295158 0.42158675144442637 0.18181855441300981
 0.42158675144431157 0.18181855441287678 0.421586751444365 0.18181855441295164 -0.06591785015211332 -0.6605340585964378 0.22274434726328574 0.2968969497709764
 0.4215867514443575 0.18181855441293981 0.4215867514444261 0.18181855441300968 0.22274434726328562 0.2968969497709763 -0.06591785015194336 -0.6605340585963528
166000000.0 -0.08684152728460111 -0.6534825981955009 0.2428718950671205 0.2905984677735561 0.42198481610864036 0.18144206521112308 0.4219848161086867 0.18144206521118605
 0.2428718950671204 0.2905984677735559 -0.08684152728439128 -0.6534825981954095 0.4219848161086938 0.1814420652111978 0.42198481610875543 0.18144206521125586
 0.4219848161086402 0.18144206521112305 0.4219848161086939 0.18144206521119777 -0.06769732436512643 -0.6597389028940888 0.22372769214764118 0.2968547724721367
 0.4219848161086864 0.18144206521118586 0.4219848161087552 0.1814420652112557 0.223727692147641 0.29685477247213654 -0.06769732436495651 -0.6597389028940043
166500000.0 -0.08857570699954842 -0.6526374009062234 0.24381562243111896 0.29050416011177627 0.4223800422841147 0.1810666203973751 0.4223800422841612 0.18106662039743818
 0.24381562243111898 0.2905041601117762 -0.08857570699933852 -0.6526374009061324 0.4223800422841684 0.18106662039744975 0.4223800422842301 0.18106662039750782
 0.42238004228411447 0.18106662039737503 0.42238004228416826 0.18106662039744972 -0.06946738973947443 -0.6589424538713727 0.22470730517104004 0.29680921307691827
 0.4223800422841609 0.18106662039743804 0.4223800422842299 0.18106662039750773 0.22470730517103987 0.2968092130769181 -0.069467389739304 -0.6589424538712881
167000000.0 -0.09030039599427495 -0.6517913498439953 0.24475548615747864 0.29040690733740393 0.4227724549182978 0.18069222125344808 0.42277245491834436 0.18069222125351114
 0.24475548615747866 0.2904069073374039 -0.09030039599406477 -0.6517913498439045 0.42277245491835175 0.18069222125352283 0.42277245491841364 0.18069222125358078
 0.4227724549182976 0.18069222125344803 0.42277245491835175 0.1806922212535227 -0.071228099466154 -0.6581447546028922 0.22568318962935274 0.2967603120962933
 0.42277245491834414 0.180692221253511 0.4227724549184134 0.18069222125358075 0.22568318962935272 0.2967603120962932 -0.0712280994659834 -0.6581447546028076
167500000.0 -0.09201565095897034 -0.6509444856887636 0.245691493534432 0.2903067478075164 0.42316207871216854 0.18031886894077653 0.4231620787122154 0.1803188689408396
 0.24569149353443184 0.2903067478075162 -0.09201565095876012 -0.650944485688673 0.42316207871222267 0.18031886894085128 0.4231620787122848 0.18031886894090915
 0.4231620787121682 0.18031886894077662 0.4231620787122228 0.1803188689408513 -0.07297950650848206 -0.6573458475577282 0.22665534908393883 0.2967081096764738
 0.4231620787122152 0.18031886894083932 0.4231620787122846 0.18031886894090904 0.22665534908393872 0.29670810967647354 -0.07297950650831156 -0.6573458475576442
168000000.0 -0.09372152830567172 -0.6500968485085998 0.24662365206030032 0.2902037195024011 0.42354893812258493 0.17994656450325303 0.4235489381226319 0.17994656450331603
 0.2466236520603003 0.2902037195024011 -0.09372152830546131 -0.6500968485085092 0.4235489381226393 0.17994656450332772 0.4235489381227016 0.17994656450338556
 0.4235489381225847 0.17994656450325303 0.4235489381226394 0.1799465645033277 -0.07472166360093446 -0.656545774606846 0.22762378735555802 0.29665264560064003
 0.4235489381226318 0.17994656450331598 0.42354893812270134 0.17994656450338561 0.22762378735555797 0.29665264560064 -0.07472166360076365 -0.6565457746067618
168500000.0 -0.09541808416760261 -0.6492484777676415 0.24755196943794394 0.29009786002793725 0.42393305736472836 0.17957530887000675 0.42393305736477555 0.17957530887006978
 0.24755196943794378 0.290097860027937 -0.095418084167392 -0.6492484777675515 0.4239330573647829 0.1795753088700814 0.42393305736484527 0.17957530887013928
 0.42393305736472797 0.1795753088700067 0.4239330573647831 0.1795753088700814 -0.07645462324804754 -0.6557445770304177 0.22858850851838383 0.29659395929070587
 0.42393305736477527 0.17957530887006964 0.4239330573648451 0.17957530887013923 0.22858850851838372 0.2965939592907058 -0.07645462324787661 -0.6557445770303336
169000000.0 -0.0971053743985736 -0.6483994123339416 0.24847645356931145 0.28998920661800015 0.4243144604145295 0.17920510285812608 0.42431446041457704 0.17920510285818916
 0.2484764535693114 0.28998920661800004 -0.09710537439836263 -0.6483994123338517 0.4243144604145844 0.1792051028582008 0.42431446041464715 0.1792051028582586
 0.42431446041452925 0.1792051028581261 0.4243144604145845 0.17920510285820082 -0.07817843772338091 -0.654942295525067 0.2295495168941138 0.2965320898091183
 0.4243144604145768 0.17920510285818902 0.42431446041464693 0.17920510285825858 0.22954951689411363 0.2965320898091181 -0.07817843772320941 -0.6549422955249832
169500000.0 -0.09878345457243942 -0.647549690487223 0.24939711255008615 0.2898777961368862 0.42469317101107495 0.17883594717532442 0.42469317101112275 0.17883594717538753
 0.24939711255008606 0.28987779613688613 -0.0987834545722285 -0.6475496904871331 0.4246931710111301 0.17883594717539908 0.42469317101119297 0.17883594717545695
 0.4246931710110748 0.1788359471753243 0.4246931710111301 0.17883594717539897 -0.07989315906853668 -0.6541389702110344 0.23050681704617818 0.29646707586069015
 0.4246931710111225 0.1788359471753874 0.4246931710111928 0.17883594717545684 0.23050681704617806 0.29646707586069 -0.07989315906836494 -0.6541389702109505
170000000.0 -0.10045237998261919 -0.6466993499265433 0.2503139546644292 0.28976366508175555 0.42506921265899306 0.17846784242255065 0.42506921265904096 0.17846784242261368
 0.25031395466442924 0.28976366508175555 -0.10045237998240772 -0.6466993499264534 0.4250692126590485 0.1784678424226254 0.4250692126591116 0.17846784242268307
 0.42506921265899295 0.17846784242255062 0.4250692126590486 0.17846784242262528 -0.08159883909223913 -0.6533346406392602 0.23146041377404436 0.29639895579446496
 0.42506921265904074 0.17846784242261343 0.4250692126591112 0.17846784242268296 0.23146041377404425 0.2963989557944648 -0.08159883909206772 -0.6533346406391766
170500000.0 -0.10211220564166672 -0.6458484277778692 0.2512269883798181 0.2896468495850931 0.42544260863082206 0.17810078909654584 0.42544260863087036 0.17810078909660876
 0.251226988379818 0.28964684958509296 -0.10211220564145539 -0.6458484277777798 0.42544260863087774 0.1781007890966204 0.42544260863094086 0.17810078909667806
 0.425442608630822 0.1781007890965458 0.4254426086308778 0.17810078909662044 -0.0832955293694697 -0.6525293457983936 0.2324103121076163 0.2963277676056102
 0.42544260863086997 0.17810078909660854 0.4254426086309406 0.17810078909667798 0.23241031210761615 0.29632776760561 -0.083295529369298 -0.6525293457983105
171000000.0 -0.1037629862809016 -0.6449969606015612 0.2521362223419794 0.28952738541718537 0.42581338196935864 0.17773478759234634 0.425813381969407 0.17773478759240924
 0.2521362223419793 0.2895273854171853 -0.10376298628069003 -0.6449969606014717 0.42581338196941454 0.17773478759242106 0.4258133819694778 0.17773478759247854
 0.4258133819693585 0.17773478759234626 0.4258133819694146 0.17773478759242095 -0.08498328124065568 -0.6517231241217226 0.23335651730172854 0.2962535489373395
 0.42581338196940677 0.17773478759240918 0.4258133819694776 0.17773478759247852 0.2333565173017284 0.29625354893733946 -0.08498328124048372 -0.6517231241216394
171500000.0 -0.10540477635008966 -0.6441449843997669 0.25304166536991257 0.2894053079886123 0.4261815554899857 0.17736983820573643 0.4261815554900342 0.17736983820579935
 0.2530416653699125 0.28940530798861225 -0.10540477634987783 -0.6441449843996776 0.4261815554900419 0.17736983820581106 0.4261815554901054 0.17736983820586869
 0.4261815554899855 0.17736983820573635 0.4261815554900419 0.17736983820581095 -0.08666214581091397 -0.6509160134940248 0.23429903483073192 0.29617633708286306
 0.426181555490034 0.17736983820579919 0.4261815554901051 0.17736983820586852 0.23429903483073186 0.296176337082863 -0.08666214581074173 -0.6509160134939418
172000000.0 -0.10703763001717728 -0.64329253462373 0.2539433264510068 0.28928065235275313 0.42654715178298236 0.17700594113564835 0.42654715178303104 0.1770059411357113
 0.2539433264510067 0.289280652352753 -0.10703763001696529 -0.6432925346236411 0.4265471517830387 0.17700594113572288 0.4265471517831022 0.17700594113578044
 0.42654715178298225 0.1770059411356484 0.42654715178303865 0.1770059411357229 -0.08833217394934689 -0.6501080512583456 0.23523787038317123 0.29609616898736146
 0.4265471517830308 0.17700594113571128 0.42654715178310204 0.17700594113578041 0.23523787038317115 0.29609616898736135 -0.08833217394917456 -0.6501080512582627
172500000.0 -0.10866160116807669 -0.6424396461810105 0.25484121473624505 0.2891534532083039 0.4269101932158126 0.17664309648651394 0.42691019321586143 0.17664309648657683
 0.2548412147362451 0.2891534532083039 -0.10866160116786433 -0.6424396461809215 0.42691019321586915 0.1766430964865885 0.4269101932159331 0.176643096486646
 0.4269101932158124 0.17664309648651388 0.42691019321586915 0.17664309648658844 -0.08999341628838906 -0.6492992742226988 0.23617302985655256 0.29601308124998504
 0.4269101932158612 0.17664309648657672 0.4269101932159328 0.1766430964866459 0.23617302985655245 0.2960130812499849 -0.08999341628821644 -0.649299274222616
173000000.0 -0.11027674340649941 -0.641586353442617 0.2557353395355001 0.2890237449018076 0.4272707019353962 0.17628130427056604 0.42727070193544514 0.17628130427062916
 0.2557353395355001 0.2890237449018076 -0.11027674340628671 -0.6415863534425282 0.427270701935453 0.1762813042706408 0.42727070193551697 0.17628130427069824
 0.427270701935396 0.17628130427056607 0.4272707019354531 0.17628130427064073 -0.09164592322320492 -0.6484897186666921 0.23710451935220056 0.2959271101258756
 0.427270701935445 0.17628130427062902 0.4272707019355168 0.17628130427069819 0.2371045193522005 0.29592711012587547 -0.09164592322303208 -0.6484897186666094
173500000.0 -0.11188311005383905 -0.6407326902500566 0.25662571031291437 0.28889156143019323 0.42762869987035873 0.17592056441009388 0.4276286998704081 0.17592056441015685
 0.2566257103129143 0.2888915614301932 -0.1118831100536266 -0.640732690249968 0.42762869987041563 0.17592056441016854 0.4276286998704799 0.17592056441022588
 0.42762869987035845 0.1759205644100939 0.42762869987041563 0.17592056441016843 -0.09328974491113343 -0.6476794203480803 0.23803234517020364 0.2958382915282098
 0.42762869987040775 0.1759205644101567 0.4276286998704797 0.17592056441022572 0.23803234517020355 0.29583829152820956 -0.09328974491096054 -0.6476794203479979
174000000.0 -0.11348075414910123 -0.6398786899222983 0.25751233668236795 0.2887569364433255 0.4279842087332625 0.1755608767396494 0.42798420873331194 0.17556087673971235
 0.25751233668236806 0.28875693644332545 -0.1134807541488882 -0.6398786899222098 0.4279842087333199 0.1755608767397239 0.4279842087333842 0.17556087673978132
 0.4279842087332623 0.1755608767396493 0.4279842087333199 0.17556087673972387 -0.09492493127118261 -0.6468684145092425 0.23895651380444435 0.2957466610302626
 0.42798420873331167 0.17556087673971224 0.42798420873338394 0.17556087673978135 0.23895651380444421 0.2957466610302625 -0.09492493127100925 -0.6468684145091599
174500000.0 -0.11506972844887553 -0.6390243852626526 0.25839522840303053 0.2886199032465613 0.42833725002281847 0.17520224100820941 0.428337250022868 0.1752022410082723
 0.2583952284030304 0.2886199032465612 -0.11506972844866255 -0.6390243852625644 0.4283372500228759 0.1752022410082839 0.4283372500229403 0.17520224100834114
 0.4283372500228181 0.17520224100820941 0.4283372500228759 0.17520224100828388 -0.09655153198356765 -0.6460567358835887 0.23987703193771737 0.2956522538674903
 0.4283372500228677 0.17520224100827225 0.42833725002294004 0.17520224100834123 0.23987703193771728 0.2956522538674903 -0.09655153198339443 -0.6460567358835063
175000000.0 -0.11665008542735793 -0.6381698085655687 0.259274395374996 0.28848049480331406 0.4286878450260766 0.1748446568812919 0.42868784502612656 0.174844656881355
 0.2592743953749959 0.28848049480331395 -0.11665008542714485 -0.6381698085654809 0.42868784502613444 0.17484465688136647 0.42868784502619905 0.17484465688142375
 0.4286878450260764 0.174844656881292 0.42868784502613444 0.17484465688136652 -0.09816959648929804 -0.6452444187018924 0.2407939064369306 0.2955551049396306
 0.4286878450261262 0.17484465688135475 0.4286878450261989 0.17484465688142375 0.24079390643693058 0.29555510493963044 -0.0981695964891245 -0.6452444187018104
175500000.0 -0.11822187727641065 -0.6373149916233504 0.2601498476350009 0.2883387437376242 0.42903601482060016 0.1744881239430286 0.42903601482065024 0.1744881239430915
 0.2601498476350009 0.2883387437376241 -0.11822187727619736 -0.6373149916232627 0.42903601482065823 0.17448812394310312 0.429036014820723 0.1744881239431603
 0.42903601482059994 0.1744881239430285 0.42903601482065823 0.174488123943103 -0.09977917398980533 -0.6444314966985535 0.24170714434839033 0.2954552488128198
 0.42903601482065 0.1744881239430913 0.42903601482072273 0.17448812394316027 0.2417071443483903 0.29545524881281976 -0.09977917398963161 -0.6444314966984716
176000000.0 -0.11978515590566591 -0.6364599657327892 0.26102159535222236 0.28819468233673484 0.4293817802766169 0.1741326416981933 0.42938178027666724 0.17413264169825637
 0.26102159535222225 0.2881946823367348 -0.11978515590545237 -0.6364599657327017 0.42938178027667506 0.17413264169826784 0.4293817802767402 0.17413264169832515
 0.4293817802766166 0.17413264169819334 0.4293817802766751 0.17413264169826784 -0.10138031344661651 -0.6436180031177877 0.24261675289316756 0.2953527197217261
 0.42938178027666696 0.17413264169825618 0.42938178027673984 0.17413264169832504 0.24261675289316748 0.2953527197217259 -0.10138031344644244 -0.6436180031177058
176500000.0 -0.12133997294267225 -0.6356047617017173 0.2618896488241561 0.2880483425536716 0.429725162059153 0.17377820957418977 0.42972516205920336 0.1737782095742527
 0.261889648824156 0.28804834255367145 -0.12133997294245868 -0.6356047617016299 0.4297251620592113 0.17377820957426424 0.42972516205927663 0.1737782095743213
 0.42972516205915257 0.17377820957418974 0.4297251620592114 0.17377820957426424 -0.10297306358106818 -0.642803970719749 0.24352273946254663 0.2952475515716961
 0.42972516205920314 0.17377820957425247 0.4297251620592764 0.17377820957432127 0.24352273946254654 0.2952475515716959 -0.10297306358089411 -0.6428039707196674
177000000.0 -0.12288637973307788 -0.6347494098554826 0.26275401847257335 0.28789975600982615 0.43006618063014695 0.17342482692299596 0.43006618063019764 0.17342482692305883
 0.2627540184725733 0.2878997560098262 -0.12288637973286404 -0.6347494098553952 0.4300661806302057 0.17342482692307046 0.4300661806302709 0.17342482692312758
 0.43006618063014684 0.17342482692299593 0.43006618063020563 0.17342482692307035 -0.10455747287406261 -0.6419894317865801 0.24442511161355265 0.2951397779409163
 0.43006618063019736 0.17342482692305877 0.4300661806302707 0.17342482692312747 0.24442511161355251 0.2951397779409163 -0.10455747287388845 -0.6419894317864984
177500000.0 -0.12442442734085399 -0.6338939400433423 0.26361471483955434 0.2877489539975417 0.43040485625054425 0.17307249302306912 0.4304048562505951 0.1730724930231319
 0.2636147148395543 0.28774895399754147 -0.12442442734063998 -0.6338939400432555 0.43040485625060315 0.17307249302314343 0.4304048562506686 0.17307249302320032
 0.430404856250544 0.1730724930230691 0.43040485625060315 0.1730724930231435 -0.10613358956586333 -0.641174418128394 0.2453238770645585 0.2950294320825861
 0.43040485625059477 0.17307249302313174 0.43040485625066827 0.1730724930232004 0.24532387706455833 0.2950294320825859 -0.1061335895656892 -0.6411744181283127
178000000.0 -0.1259541665485545 -0.6330383816447823 0.2644717485835985 0.2875959674827007 0.43074120898237217 0.17272120708121017 0.430741208982423 0.17272120708127298
 0.2644717485835984 0.28759596748270067 -0.12595416654834038 -0.6330383816446954 0.43074120898243123 0.17272120708128455 0.4307412089824968 0.17272120708134153
 0.4307412089823719 0.17272120708121005 0.4307412089824313 0.17272120708128436 -0.10770146165593003 -0.6403589610891907 0.2462190436909689 0.2949165469271016
 0.4307412089824228 0.17272120708127275 0.43074120898249657 0.17272120708134137 0.24621904369096886 0.2949165469271016 -0.10770146165575561 -0.6403589610891093
178500000.0 -0.12747564785761362 -0.6321827635757543 0.2653251304758093 0.2874408271073149 0.4310752586907958 0.17237096823439005 0.4310752586908471 0.17237096823445291
 0.2653251304758093 0.2874408271073148 -0.127475647857399 -0.6321827635756676 0.43107525869085533 0.17237096823446443 0.43107525869092117 0.17237096823452144
 0.4310752586907957 0.17237096823439 0.4310752586908554 0.17237096823446443 -0.10926113690279096 -0.6395430915526995 0.24711061952098137 0.2948011550842526
 0.4310752586908468 0.17237096823445275 0.4310752586909209 0.17237096823452147 0.24711061952098123 0.29480115508425264 -0.10926113690261596 -0.6395430915526182
179000000.0 -0.12898892148867727 -0.6313271142948421 0.2661748713961528 0.2872835631921113 0.43140702504615575 0.17202177555153625 0.43140702504620715 0.17202177555159903
 0.2661748713961527 0.28728356319211124 -0.1289889214884627 -0.6313271142947555 0.43140702504621536 0.17202177555161063 0.43140702504628137 0.1720217755516675
 0.4314070250461555 0.17202177555153614 0.4314070250462154 0.17202177555161052 -0.11081266282395298 -0.638726839948163 0.24799861273142307 0.29468328884542494
 0.4314070250462069 0.1720217755515988 0.4314070250462812 0.17202177555166742 0.24799861273142315 0.2946832888454249 -0.11081266282377808 -0.638726839948082
179500000.0 -0.13049403738197013 -0.6304714618093477 0.2670209823297887 0.2871242057391238 0.4317365275259842 0.17167362803528363 0.4317365275260356 0.17167362803534644
 0.2670209823297886 0.28712420573912356 -0.13049403738175525 -0.6304714618092613 0.43173652752604397 0.17167362803535796 0.43173652752611 0.1716736280354148
 0.43173652752598396 0.17167362803528352 0.4317365275260441 0.17167362803535788 -0.11235608669584819 -0.637910236256047 0.2488830316436614 0.29456298018581556
 0.43173652752603536 0.17167362803534622 0.4317365275261098 0.17167362803541478 0.24888303164366138 0.2945629801858155 -0.11235608669567312 -0.637910236255966
180000000.0 -0.13199104519769475 -0.6296158336813062 0.26786347436347313 0.2869627844342772 0.4320637854170039 0.17132652462368694 0.43206378541705576 0.1713265246237498
 0.2678634743634731 0.28696278443427703 -0.13199104519748003 -0.62961583368122 0.432063785417064 0.17132652462376113 0.4320637854171303 0.17132652462381803
 0.4320637854170036 0.1713265246236868 0.432063785417064 0.1713265246237611 -0.11389145555381514 -0.6370933100136893 0.2497638847195879 0.29444026076665286
 0.43206378541705553 0.1713265246237495 0.4320637854171301 0.17132652462381795 0.24976388471958794 0.29444026076665275 -0.11389145555363969 -0.6370933100136086
180500000.0 -0.1334799943164645 -0.6287602570334249 0.2687023586820322 0.28679932864997454 0.43238881781710914 0.1709804641918984 0.43238881781716104 0.1709804641919612
 0.2687023586820321 0.2867993286499745 -0.13347999431624943 -0.6287602570333388 0.4323888178171694 0.1709804641919727 0.4323888178172358 0.17098046419202945
 0.4323888178171088 0.17098046419189836 0.43238881781716937 0.1709804641919726 -0.1154188161921135 -0.6362760903208823 0.2506411805576758 0.29431516193742463
 0.4323888178171608 0.17098046419196106 0.43238881781723554 0.17098046419202942 0.2506411805576757 0.2943151619374246 -0.11541881619193806 -0.6362760903208016
181000000.0 -0.13496093383976623 -0.627904758554949 0.2695376465649033 0.2866338674476779 0.4327116436373242 0.17063544555380944 0.4327116436373763 0.17063544555387217
 0.2695376465649032 0.2866338674476777 -0.13496093383955104 -0.6279047585548632 0.4327116436373846 0.17063544555388369 0.4327116436374513 0.17063544555394033
 0.43271164363732384 0.17063544555380944 0.4327116436373846 0.1706354455538837 -0.11693821516397535 -0.6354586058453904 0.25151492788910695 0.29418771473811206
 0.4327116436373759 0.17063544555387208 0.4327116436374509 0.17063544555394042 0.25151492788910684 0.29418771473811195 -0.1169382151637997 -0.6354586058453098
181500000.0 -0.13643391259045437 -0.6270493645074567 0.27036934938274576 0.28646642958048874 0.43303228160374674 0.170291467463659 0.433032281603799 0.17029146746372162
 0.27036934938274576 0.28646642958048857 -0.13643391259023896 -0.6270493645073713 0.4330322816038074 0.1702914674637331 0.433032281603874 0.1702914674637897
 0.4330322816037464 0.17029146746365884 0.4330322816038074 0.17029146746373305 -0.11844969878168417 -0.6346408848284054 0.2523851355739703 0.29405794990143
 0.4330322816037987 0.1702914674637214 0.43303228160387386 0.17029146746378965 0.25238513557397024 0.29405794990142986 -0.11844969878150849 -0.634640884828325
182000000.0 -0.13789897911327512 -0.6261941007305813 0.2711974785941192 0.2862970434957221 0.43335075025947023 0.16994852861760512 0.43335075025952285 0.1699485286176679
 0.2711974785941191 0.28629704349572205 -0.13789897911305962 -0.6261941007304959 0.4333507502595311 0.1699485286176794 0.433350750259598 0.16994852861773604
 0.43335075025947006 0.16994852861760518 0.43335075025953124 0.16994852861767934 -0.11995331311669084 -0.6338229550899361 0.2532518125975293 0.2939258978550695
 0.4333507502595225 0.1699485286176678 0.43335075025959785 0.16994852861773602 0.2532518125975292 0.2939258978550694 -0.11995331311651475 -0.6338229550898558
182500000.0 -0.13935618167541833 -0.6253389926476619 0.2720220457422251 0.2861257373374782 0.43366706796648874 0.16960662765526816 0.4336670679665416 0.169606627655331
 0.27202204574222494 0.2861257373374782 -0.1393561816752028 -0.6253389926475764 0.4336670679665497 0.16960662765534246 0.4336670679666169 0.16960662765539902
 0.4336670679664885 0.1696066276552682 0.4336670679665498 0.16960662765534235 -0.12144910399975614 -0.6330048440341375 0.254114968066557 0.2937915887239466
 0.4336670679665412 0.16960662765533083 0.4336670679666167 0.1696066276553989 0.25411496806655687 0.29379158872394645 -0.12144910399957975 -0.6330048440340574
183000000.0 -0.14080556826709753 -0.6244840652713262 0.2728430624517165 0.28595253894920775 0.4339812529075822 0.16926576316123648 0.4339812529076353 0.1692657631612992
 0.27284306245171636 0.2859525389492076 -0.14080556826688181 -0.6244840652712411 0.4339812529076435 0.1692657631613106 0.43398125290771095 0.16926576316136724
 0.433981252907582 0.16926576316123643 0.4339812529076437 0.16926576316131053 -0.12293711702112572 -0.6321865786545784 0.254974611205739 0.29365505233245254
 0.43398125290763506 0.16926576316129896 0.43398125290771067 0.16926576316136702 0.25497461120573883 0.2936550523324523 -0.1229371170209492 -0.6321865786544983
183500000.0 -0.1422471866021564 -0.6236293432090027 0.2736605404255696 0.285777475876272 0.43429332308818497 0.16892593366654332 0.4342933230882381 0.16892593366660594
 0.2736605404255696 0.28577747587627195 -0.14224718660194055 -0.6236293432089177 0.4342933230882466 0.1689259336666174 0.43429332308831387 0.16892593366667388
 0.43429332308818486 0.1689259336665433 0.43429332308824653 0.16892593366661737 -0.12441739753073458 -0.631368185539445 0.2558307513541419 0.2935163182067069
 0.43429332308823787 0.16892593366660583 0.43429332308831364 0.1689259336666738 0.25583075135414196 0.2935163182067068 -0.12441739753055822 -0.6313681855393651
184000000.0 -0.14368108411870334 -0.6227748506683639 0.27447449144201874 0.2856005753684972 0.4346032963382335 0.16858713765011207 0.4346032963382868 0.16858713765017463
 0.27447449144201874 0.2856005753684972 -0.1436810841184872 -0.6227748506682789 0.4346032963382954 0.16858713765018615 0.43460329633836287 0.16858713765024255
 0.4346032963382333 0.16858713765011213 0.4346032963382953 0.16858713765018613 -0.12588999063843848 -0.6305496908766869 0.2566833979617483 0.29337541557681324
 0.43460329633828654 0.16858713765017452 0.43460329633836253 0.16858713765024247 0.2566833979617482 0.29337541557681307 -0.12588999063826187 -0.6305496908766073
184500000.0 -0.14510730797976798 -0.6219206114627023 0.2752849273515531 0.2854218643827213 0.4349111903139986 0.1682493735401701 0.4349111903140521 0.16824937354023287
 0.2752849273515531 0.28542186438272116 -0.14510730797955163 -0.6219206114626178 0.43491119031406056 0.16824937354024422 0.43491119031412834 0.16824937354030065
 0.43491119031399833 0.1682493735401701 0.43491119031406067 0.16824937354024416 -0.12735494121427418 -0.6297311204591017 0.2575325605860536 0.29323237337911323
 0.43491119031405184 0.16824937354023264 0.4349111903141281 0.1682493735403006 0.2575325605860535 0.2932323733791132 -0.1273549412140972 -0.629731120459022
185000000.0 -0.1465259050739852 -0.6210666490162409 0.27609186007397346 0.2852413695853342 0.43521702249989663 0.16791263971563383 0.4352170224999502 0.16791263971569653
 0.27609186007397346 0.28524136958533397 -0.14652590507376873 -0.6210666490161565 0.43521702249995897 0.16791263971570783 0.4352170225000266 0.1679126397157641
 0.43521702249989636 0.16791263971563372 0.435217022499959 0.1679126397157078 -0.1288122938887452 -0.6289124996893588 0.2583782488887279 0.2930872202584445
 0.43521702249995003 0.16791263971569628 0.4352170225000266 0.16791263971576417 0.25837824888872785 0.29308722025844447 -0.12881229388856819 -0.6289124996892792
185500000.0 -0.14793692201630174 -0.6202129863693743 0.27689530159551123 0.28505911735481043 0.4355208102102859 0.16757693450746286 0.43552081021033967 0.16757693450752548
 0.2768953015955111 0.28505911735481043 -0.14793692201608516 -0.6202129863692899 0.4355208102103483 0.16757693450753702 0.4355208102104163 0.16757693450759317
 0.43552081021028566 0.16757693450746294 0.4355208102103482 0.167576934507537 -0.13026209305313707 -0.6280938535849668 0.2592204726323408 0.2929399845703961
 0.43552081021033934 0.16757693450752537 0.43552081021041605 0.16757693450759314 0.2592204726323408 0.292939984570396 -0.13026209305296008 -0.6280938535848877
186000000.0 -0.14934040514870536 -0.619359646183846 0.27769526396600236 0.2848751337842344 0.4358225705912419 0.1672422561999878 0.43582257059129587 0.16724225620005034
 0.2776952639660023 0.28487513378423435 -0.1493404051484884 -0.6193596461837617 0.43582257059130464 0.16724225620006186 0.43582257059137275 0.16724225620011793
 0.4358225705912418 0.16724225619998784 0.43582257059130464 0.16724225620006175 -0.13170438285985422 -0.627275206783182 0.2600592416771455 0.2927906943835632
 0.43582257059129564 0.1672422562000502 0.4358225705913725 0.16724225620011796 0.26005924167714545 0.29279069438356314 -0.131704382859677 -0.6272752067831029
186500000.0 -0.15073640054097664 -0.6185066507478624 0.2784917592961228 0.28468944468381435 0.4361223206223172 0.1669086030322067 0.4361223206223714 0.16690860303226926
 0.2784917592961227 0.28468944468381424 -0.15073640054075976 -0.6185066507477786 0.43612232062237993 0.1669086030322806 0.4361223206224484 0.1669086030323368
 0.436122320622317 0.16690860303220667 0.4361223206223801 0.16690860303228056 -0.13313920722278394 -0.6264565835458571 0.2608945659779241 0.29263937748180163
 0.4361223206223711 0.16690860303226918 0.4361223206224481 0.16690860303233673 0.260894565977924 0.2926393774818016 -0.13313920722260636 -0.6264565835457779
187000000.0 -0.15212495399146275 -0.6176540219811396 0.27928479975467835 0.28450207558339147 0.4364200771182822 0.1665759731990575 0.4364200771183365 0.16657597319911993
 0.27928479975467824 0.2845020755833913 -0.1521249539912456 -0.6176540219810557 0.4364200771183453 0.16657597319913148 0.43642007711841374 0.16657597319918738
 0.43642007711828196 0.16657597319905743 0.43642007711834535 0.1665759731991314 -0.13456660981768334 -0.6256380077642353 0.26172645558089336 0.29248606136648
 0.43642007711833625 0.1665759731991198 0.4364200771184134 0.16657597319918743 0.2617264555808933 0.2924860613664798 -0.13456660981750593 -0.6256380077641563
187500000.0 -0.15350611102787004 -0.6168017814398885 0.2800743975659517 0.2843130517349365 0.43671585673084906 0.16624436485266042 0.43671585673090363 0.16624436485272281
 0.28007439756595165 0.2843130517349364 -0.15350611102765285 -0.6168017814398048 0.43671585673091223 0.16624436485273422 0.4367158567309808 0.1662443648527903
 0.43671585673084884 0.16624436485266045 0.43671585673091223 0.16624436485273422 -0.135986634082592 -0.6248195029636869 0.2625549206206679 0.2923307732587277
 0.43671585673090324 0.1662443648527227 0.43671585673098057 0.16624436485279018 0.2625549206206678 0.2923307732587276 -0.13598663408241446 -0.6248195029636083
188000000.0 -0.15487991690808048 -0.6159499503217382 0.280860565007104 0.2841223981150378 0.4370096759503777 0.16591377610353542 0.43700967595043255 0.1659137761035979
 0.280860565007104 0.2841223981150377 -0.15487991690786293 -0.6159499503216547 0.4370096759504412 0.16591377610360927 0.43700967595051016 0.16591377610366526
 0.4370096759503775 0.16591377610353533 0.4370096759504413 0.16591377610360922 -0.1373993232182637 -0.624001092308391 0.26337997131728147 0.29217354010168334
 0.43700967595043233 0.16591377610359764 0.4370096759505098 0.16591377610366512 0.26337997131728125 0.29217354010168306 -0.13739932321808565 -0.6240010923083125
188500000.0 -0.1562464166209821 -0.6150985494705954 0.2816433144056301 0.28393013942737927 0.4373015511075653 0.1655842050217937 0.43730155110762015 0.16558420502185608
 0.28164331440563006 0.2839301394273794 -0.15624641662076463 -0.6150985494705118 0.4373015511076289 0.16558420502186763 0.43730155110769786 0.16558420502192348
 0.4373015511075651 0.16558420502179366 0.437301551107629 0.1655842050218675 -0.13880472018862203 -0.623182798605959 0.2642016179732643 0.29201438856273587
 0.43730155110761987 0.16558420502185595 0.43730155110769753 0.16558420502192334 0.2642016179732642 0.2920143885627357 -0.1388047201884441 -0.6231827986058806
189000000.0 -0.15760565488732398 -0.614247599381443 0.28242265813686807 0.28373630010520917 0.4375914983751169 0.16525564963830372 0.4375914983751721 0.1652556496383662
 0.2824226581368681 0.28373630010520906 -0.15760565488710626 -0.6142475993813601 0.437591498375181 0.16525564963837736 0.43759149837525 0.16525564963843334
 0.43759149837511674 0.16525564963830358 0.43759149837518097 0.16525564963837736 -0.14020286772124022 -0.6223646443120071 0.2650198709707786 0.2918533450357656
 0.43759149837517186 0.1652556496383658 0.4375914983752497 0.16525564963843314 0.2650198709707785 0.2918533450357654 -0.140202867721062 -0.6223646443119287
189500000.0 -0.15895767616058445 -0.6133971202050813 0.2831986086215597 0.2835409043137941 0.43787953376940136 0.16492810794583104 0.4378795337694566 0.1649281079458934
 0.28319860862155954 0.283540904313794 -0.15895767616036657 -0.6133971202049981 0.43787953376946537 0.1649281079459047 0.4378795337695344 0.16492810794596066
 0.4378795337694012 0.16492810794583104 0.43787953376946553 0.1649281079459047 -0.14159380830783616 -0.6215466515346716 0.2658347407688055 0.29169043564337716
 0.4378795337694564 0.16492810794589335 0.4378795337695342 0.16492810794596058 0.2658347407688053 0.2916904356433771 -0.14159380830765766 -0.6215466515345932
190000000.0 -0.16030252462785982 -0.6125471317528024 0.28397117832346264 0.283343975952867 0.4381656731520874 0.16460157790015595 0.43816567315214283 0.16460157790021834
 0.28397117832346247 0.2833439759528668 -0.16030252462764197 -0.6125471317527196 0.43816567315215155 0.16460157790022953 0.43816567315222094 0.16460157790028546
 0.43816567315208715 0.16460157790015595 0.4381656731521517 0.16460157790022964 -0.14297758420479278 -0.6207288420390727 0.2666462379003896 0.29152568623913006
 0.4381656731521425 0.16460157790021826 0.4381656731522207 0.1646015779002854 0.26664623790038944 0.29152568623912994 -0.14297758420461412 -0.6207288420389946
190500000.0 -0.16164024421076817 -0.6116976535010141 0.2847403797470138 0.28314553865906067 0.43844993223176565 0.1642760574211658 0.4384499322318212 0.1642760574212282
 0.28474037974701366 0.28314553865906056 -0.16164024421055 -0.6116976535009314 0.4384499322318302 0.16427605742123957 0.43844993223189954 0.1642760574212953
 0.4384499322317653 0.16427605742116583 0.4384499322318301 0.16427605742123952 -0.1443542374336945 -0.6199112372517244 0.26745437296993413 0.2913591224097634
 0.43844993223182094 0.16427605742122808 0.4384499322318995 0.16427605742129525 0.267454372969934 0.29135912240976336 -0.14435423743351564 -0.6199112372516463
191000000.0 -0.16297087856637055 -0.6108487045957987 0.28550622543504206 0.28294561580832994 0.4387323265655525 0.1639515443939241 0.43873232656560834 0.1639515443939865
 0.28550622543504195 0.2829456158083299 -0.16297087856615228 -0.610848704595716 0.43873232656561717 0.16395154439399773 0.4387323265656869 0.1639515443940535
 0.43873232656555233 0.16395154439392418 0.4387323265656172 0.16395154439399773 -0.14572380978188496 -0.6190938582648902 0.2682591566505506 0.29119076947741435
 0.4387323265656081 0.16395154439398635 0.43873232656568656 0.16395154439405338 0.2682591566505505 0.29119076947741424 -0.14572380978170607 -0.6190938582648123
191500000.0 -0.16429447108810674 -0.6100003038574152 0.28626872796652864 0.28274423051836295 0.43901287156067714 0.1636280366697168 0.43901287156073315 0.16362803666977907
 0.28626872796652847 0.2827442305183628 -0.16429447108788844 -0.610000303857333 0.4390128715607421 0.16362803666979037 0.43901287156081176 0.16362803666984604
 0.4390128715606768 0.1636280366697167 0.4390128715607421 0.16362803666979017 -0.1470863428030429 -0.6182767258408907 0.2690605996814587 0.29102065250183085
 0.43901287156073293 0.16362803666977888 0.43901287156081165 0.16362803666984588 0.2690605996814587 0.2910206525018308 -0.14708634280286378 -0.618276725840813
192000000.0 -0.16561106490674665 -0.6091524697847487 0.2870278999544167 0.28254140565097896 0.43929158247605293 0.16330553206707632 0.4392915824761089 0.16330553206713852
 0.28702789995441663 0.28254140565097885 -0.1656110649065281 -0.6091524697846665 0.439291582476118 0.16330553206714984 0.4392915824761877 0.1633055320672054
 0.43929158247605254 0.16330553206707624 0.43929158247611805 0.1633055320671498 -0.14844187781777346 -0.6174598604163557 0.2698587128654373 0.29084879628257865
 0.4392915824761087 0.16330553206713844 0.43929158247618755 0.1633055320672054 0.26985871286543733 0.29084879628257854 -0.14844187781759421 -0.617459860416278
192500000.0 -0.1669207028913564 -0.6083052205596963 0.28778375404346795 0.2823371638145143 0.43956847442383185 0.1629840283727832 0.4395684744238881 0.1629840283728453
 0.28778375404346784 0.2823371638145142 -0.1669207028911376 -0.6083052205596142 0.4395684744238972 0.16298402837285667 0.4395684744239673 0.16298402837291218
 0.4395684744238315 0.16298402837278306 0.4395684744238972 0.1629840283728565 -0.14979045591422113 -0.616643282106429 0.2706535070663266 0.29067522536123963
 0.43956847442388775 0.16298402837284515 0.43956847442396696 0.16298402837291212 0.2706535070663266 0.29067522536123946 -0.14979045591404172 -0.6166432821063514
193000000.0 -0.1682234276502771 -0.6074585740515034 0.28853630290816473 0.282131527366196 0.4398435623709436 0.16266352334284645 0.4398435623710001 0.16266352334290876
 0.2885363029081646 0.28213152736619596 -0.1682234276500583 -0.6074585740514212 0.43984356237100913 0.16266352334291997 0.4398435623710794 0.16266352334297557
 0.43984356237094335 0.16266352334284648 0.43984356237100924 0.16266352334291995 -0.1511321179486958 -0.6158270107089197 0.2714449932065772 0.29049996402360506
 0.4398435623709998 0.16266352334290868 0.43984356237107913 0.16266352334297557 0.27144499320657706 0.290499964023605 -0.15113211794851603 -0.615827010708842
193500000.0 -0.16951928153211893 -0.6066125478210402 0.2892855592506583 0.28192451841450167 0.4401168611406175 0.16234401470346324 0.4401168611406743 0.16234401470352539
 0.2892855592506581 0.28192451841450145 -0.16951928153189993 -0.6066125478209586 0.44011686114068316 0.16234401470353665 0.44011686114075366 0.16234401470359205
 0.44011686114061727 0.1623440147034633 0.44011686114068344 0.1623440147035367 -0.1524669045463162 -0.6150110657084058 0.27223318226484944 0.29032303630186007
 0.4401168611406739 0.16234401470352514 0.4401168611407535 0.16234401470359192 0.2722331822648493 0.29032303630185985 -0.15246690454613668 -0.6150110657083289
194000000.0 -0.17080830662676566 -0.6057671591250283 0.29003153579876095 0.2817161588215059 0.4403883854138893 0.162025500151956 0.4403883854139461 0.16202550015201814
 0.29003153579876095 0.2817161588215059 -0.1708083066265466 -0.6057671591249467 0.44038838541395536 0.16202550015202932 0.4403883854140257 0.16202550015208464
 0.4403883854138893 0.16202550015195594 0.4403883854139553 0.1620255001520292 -0.1537948561016707 -0.6141954662802898 0.27301808527366 0.29014446597676
 0.44038838541394587 0.162025500152018 0.4403883854140254 0.1620255001520846 0.2730180852736598 0.29014446597675997 -0.15379485610149077 -0.6141954662802125
194500000.0 -0.17209054476639365 -0.604922424920208 0.29077424530398405 0.2815064702052155 0.4406581497310917 0.16170797735769168 0.4406581497311487 0.16170797735775375
 0.2907742453039839 0.2815064702052153 -0.17209054476617439 -0.6049224249201267 0.44065814973115786 0.16170797735776496 0.4406581497312284 0.1617079773578203
 0.44065814973109135 0.16170797735769166 0.4406581497311578 0.16170797735776504 -0.15511601277949025 -0.6133802312947999 0.27379971331707426 0.2899642765798002
 0.4406581497311483 0.16170797735775364 0.4406581497312282 0.16170797735782033 0.2737997133170742 0.28996427657980006 -0.1551160127793103 -0.613380231294723
195000000.0 -0.17336603752650187 -0.6040783618674562 0.291513700539616 0.2812954739418879 0.4409261684933296 0.16139144396298025 0.44092616849338656 0.1613914439630423
 0.2915137005396159 0.2812954739418879 -0.1733660375262826 -0.604078361867375 0.4409261684933959 0.16139144396305363 0.44092616849346655 0.16139144396310895
 0.44092616849332933 0.16139144396298025 0.44092616849339594 0.1613914439630535 -0.15643041451533898 -0.6125653793209512 0.2745780775284468 0.28978249139537565
 0.44092616849338634 0.16139144396304222 0.44092616849346616 0.16139144396310884 0.27457807752844665 0.2897824913953756 -0.15643041451515888 -0.6125653793208743
195500000.0 -0.17463482622695214 -0.6032349863358513 0.2922499142988459 0.2810831911683391 0.4411924559639395 0.16107589758395296 0.44119245596399675 0.1610758975840149
 0.2922499142988458 0.28108319116833896 -0.17463482622673268 -0.60323498633577 0.441192455964006 0.16107589758402613 0.44119245596407686 0.16107589758408133
 0.4411924559639394 0.1610758975839529 0.44119245596400614 0.16107589758402618 -0.15773810101631694 -0.611750928630452 0.27535318908820466 0.2895991334629327
 0.44119245596399653 0.16107589758401483 0.4411924559640767 0.16107589758408133 0.27535318908820455 0.2895991334629326 -0.15773810101613694 -0.6117509286303753
196000000.0 -0.1758969519330223 -0.6023923144066833 0.2929828993929263 0.28086964278423465 0.44145702626993405 0.16076133581142202 0.4414570262699915 0.16076133581148405
 0.2929828993929262 0.28086964278423465 -0.1758969519328026 -0.6023923144066022 0.4414570262700008 0.16076133581149535 0.44145702627007166 0.1607613358115505
 0.4414570262699339 0.16076133581142207 0.4414570262700007 0.1607613358114953 -0.159039111761779 -0.6109368972015671 0.27612505922167707 0.2894142255791115
 0.44145702626999134 0.16076133581148397 0.4414570262700715 0.16076133581155044 0.276125059221677 0.28941422557911145 -0.15903911176159868 -0.6109368972014906
196500000.0 -0.17715245545646746 -0.6015503618774168 0.29371266864937867 0.28065484945436897 0.4417198934034304 0.1604477562117224 0.44171989340348794 0.16044775621178434
 0.29371266864937856 0.280654849454369 -0.17715245545624783 -0.6015503618773359 0.4417198934034972 0.16044775621179566 0.4417198934035684 0.16044775621185067
 0.44171989340343015 0.16044775621172244 0.4417198934034973 0.16044775621179552 -0.16033348600406397 -0.6101233027229342 0.276893699196969 0.28922779029987933
 0.4417198934034877 0.1604477562117842 0.4417198934035681 0.1604477562118506 0.2768936991969688 0.28922779029987916 -0.16033348600388359 -0.6101233027228579
197000000.0 -0.1784013773565941 -0.6007091442655991 0.29443923491023766 0.28043883161092925 0.44198107122306407 0.1601351563275341 0.4419810712231218 0.16013515632759606
 0.29443923491023755 0.2804388316109292 -0.1784013773563742 -0.6007091442655184 0.44198107122313113 0.16013515632760722 0.44198107122320246 0.16013515632766231
 0.4419810712230638 0.1601351563275341 0.4419810712231312 0.1601351563276072 -0.16162126276923897 -0.6093101625973313 0.27765912032287615 0.2890398499426544
 0.44198107122312164 0.16013515632759603 0.4419810712232022 0.16013515632766231 0.27765912032287604 0.28903984994265436 -0.16162126276905817 -0.6093101625972549
197500000.0 -0.17964375794133972 -0.5998686768127203 0.29516261103033525 0.2802216094557451 0.4422405734553879 0.15982353367868762 0.4422405734554459 0.15982353367874955
 0.29516261103033514 0.28022160945574504 -0.17964375794111986 -0.5998686768126396 0.44224057345545503 0.15982353367876082 0.44224057345552653 0.15982353367881577
 0.44224057345538764 0.1598235336786877 0.4422405734554551 0.1598235336787607 -0.1629024808578552 -0.6084974939454024 0.27842133394684443 0.2888504265884202
 0.44224057345544554 0.15982353367874938 0.4422405734555262 0.1598235336788157 0.2784213339468443 0.28885042658842 -0.16290248085767448 -0.6084974939453262
198000000.0 -0.18087963726836523 -0.5990289744880232 0.2958828098756247 0.28000320296252384 0.44249841369625564 0.15951288576295083 0.44249841369631393 0.15951288576301273
 0.29588280987562465 0.2800032029625237 -0.1808796372681451 -0.5990289744879428 0.4424984136963231 0.1595128857630238 0.44249841369639475 0.15951288576307884
 0.4424984136962555 0.1595128857629508 0.4424984136963232 0.15951288576302378 -0.16417717884571678 -0.607685313609335 0.2791803514529699 0.2886595420838284
 0.4424984136963136 0.15951288576301248 0.44249841369639453 0.15951288576307865 0.27918035145296977 0.28865954208382816 -0.16417717884553587 -0.6076853136092589
198500000.0 -0.18210905514615397 -0.598190051992265 0.29659984432154113 0.2797836318790708 0.4427546054121918 0.15920321005679886 0.44275460541225004 0.1592032100568608
 0.29659984432154096 0.27978363187907074 -0.18210905514593362 -0.5981900519921848 0.4427546054122594 0.15920321005687196 0.442754605412331 0.1592032100569268
 0.4427546054121915 0.15920321005679897 0.4427546054122594 0.1592032100568719 -0.16544539508465925 -0.606873638156495 0.27993618426004 0.2884672180432935
 0.4427546054122496 0.15920321005686064 0.44275460541233075 0.15920321005692678 0.27993618426003986 0.2884672180432934 -0.16544539508447828 -0.6068736381564189
199000000.0 -0.1833320511351186 -0.5973519237614289 0.2973137272513994 0.27956291572949604 0.4430091619417447 0.15889450401616886 0.44300916194180306 0.15889450401623068
 0.2973137272513992 0.2795629157294959 -0.18333205113489823 -0.5973519237613489 0.44300916194181245 0.15889450401624178 0.4430091619418843 0.15889450401629662
 0.44300916194174444 0.15889450401616903 0.4430091619418126 0.15889450401624194 -0.16670716770334054 -0.6060624838830161 0.28068884381961506 0.2882734758510763
 0.4430091619418028 0.1588945040162306 0.44300916194188406 0.15889450401629662 0.2806888438196149 0.28827347585107616 -0.1667071677031595 -0.6060624838829404
199500000.0 -0.18454866454871735 -0.5965146039703888 0.2980244715548302 0.2793410738164047 0.44326209649682835 0.15858676507719527 0.44326209649688686 0.15858676507725689
 0.2980244715548302 0.2793410738164047 -0.18454866454849678 -0.5965146039703089 0.4432620964968965 0.15858676507726813 0.4432620964969683 0.1585867650773229
 0.443262096496828 0.1585867650771952 0.44326209649689635 0.15858676507726807 -0.16796253460804358 -0.6052518668173469 0.28143834161415004 0.28807833666335575
 0.44326209649688664 0.1585867650772569 0.44326209649696807 0.1585867650773229 0.2814383416141501 0.28807833666335575 -0.1679625346078623 -0.6052518668172712
200000000.0 -0.1857589344545767 -0.5956781065365271 0.2987320901262517 0.2791181252230731 0.4435134221640472 0.15827999065693105 0.44351342216410583 0.1582799906569927
 0.29873209012625157 0.2791181252230731 -0.18575893445435598 -0.5956781065364471 0.4435134221641153 0.158279990657004 0.44351342216418743 0.1582799906570586
 0.443513422164047 0.15827999065693102 0.4435134221641153 0.15827999065700377 -0.16921153348348614 -0.604441802723753 0.28218468915515466 0.28788182141029195
 0.44351342216410566 0.15827999065699266 0.4435134221641871 0.15827999065705856 0.2821846891551546 0.2878818214102919 -0.16921153348330456 -0.6044418027236773
