! Created with skrf 2.0.1 (http://scikit-rf.org).
# Hz S RI R 50.0 
!freq ReS11 ImS11 ReS21 ImS21 ReS12 ImS12 ReS22 ImS22
500000.0 0.9999832878198954 -0.005302937265935752 2.45600518038072e-19 4.3140795007153516e-17 2.521017082214328e-19 4.4282757227931104e-17 0.9999845406155246 -0.005082878286183038
1000000.0 0.9999384556780656 -0.010605622727493784 9.392186818063527e-19 8.627590625227609e-17 9.640803527953446e-19 8.855968024130695e-17 0.9999432465843263 -0.010165533760566581
1500000.0 0.9998655074683038 -0.015907832737783144 2.0807378621249864e-18 1.2940009935157371e-16 2.135816217298883e-18 1.3282539609911536e-16 0.9998761212052784 -0.015247769476582575
2000000.0 0.9997644494556474 -0.021209343717545355 3.669968953237709e-18 1.7250814242048273e-16 3.767115190235179e-18 1.770745344257308e-16 0.9997831697787994 -0.020329388542547015
2500000.0 0.9996352902750466 -0.026509932186572816 5.706650430782933e-18 2.1559480724949322e-16 5.857708824538952e-18 2.2130172861786218e-16 0.999664399605818 -0.025410194147080515
3000000.0 0.9994780409295393 -0.031809374795097926 8.190448431734155e-18 2.586548704785062e-16 8.407254419633e-18 2.6550161704999605e-16 0.9995198199863534 -0.03048998958450708
3500000.0 0.9992927147879223 -0.03710744835514354 1.1120956856269246e-17 3.0168311476925797e-16 1.141533512599402e-17 3.0966884427785594e-16 0.9993494422177076 -0.03556857828022407
4000000.0 0.9990793275819261 -0.042403929871825605 1.4497697491517197e-17 3.44674329975349e-16 1.4881460072175007e-17 3.5379806223940247e-16 0.9991532795922731 -0.04064576381603669
4500000.0 0.9988378974028965 -0.0476985965745989 1.8320120157119865e-17 3.8762331430941447e-16 1.8805064514220097e-17 3.97883931452899e-16 0.9989313473949529 -0.04572134995544989
5000000.0 0.9985684446979753 -0.05299122594843634 2.2587602872535222e-17 4.3052487550697315e-16 2.3185510007396448e-17 4.4192112221156946e-16 0.9986836629001982 -0.05079514066891104
5500000.0 0.9982709922657913 -0.058281595764933074 2.7299452045997984e-17 4.733738319864994e-16 2.802208460015676e-17 4.859043157743774e-16 0.9984102453686621 -0.05586694015899657
6000000.0 0.9979455652516586 -0.06356948411332611 3.245490268504247e-17 5.16165014005261e-16 3.331400305023477e-17 5.29828205552459e-16 0.9981111160434709 -0.060936552885535615
6500000.0 0.9975921911422817 -0.0688546694314202 3.805311862848162e-17 5.588932648104639e-16 3.906040706276496e-17 5.736874982907411e-16 0.9977862981461144 -0.06600378359066415
7000000.0 0.9972108997599767 -0.07413693053641142 4.409319279972595e-17 6.015534417852628e-16 4.5260365550306924e-17 6.174769152442844e-16 0.9974358168719571 -0.07106843732380262
7500000.0 0.9968017232564059 -0.07941604665559923 5.057414748131534e-17 6.441404175891811e-16 5.191287491464427e-17 6.611911933488946e-16 0.997059699385375 -0.07613031946655097
8000000.0 0.9963646961058231 -0.08469179745697762 5.749493461052538e-17 6.866490812924972e-16 5.901685935021576e-17 7.0482508638553395e-16 0.9966579748145081 -0.08118923575749318
8500000.0 0.9958998550978481 -0.08996396307969756 6.485443609590141e-17 7.29074339504165e-16 6.65711711690282e-17 7.483733661380986e-16 0.9962306742456485 -0.0862449923169064
9000000.0 0.9954072393297547 -0.09523232416439109 7.265146415456098e-17 7.71411117492818e-16 7.45745911468876e-17 7.918308235440985e-16 0.9957778307172511 -0.09129739567136679
9500000.0 0.9948868901982879 -0.10049666188334853 8.088476167009689e-17 8.136543603004389e-16 8.302582889077593e-17 8.351922698378034e-16 0.9952994792135743 -0.09634625277824584
10000000.0 0.9943388513910082 -0.10575675797054045 8.955300257090208e-17 8.557990338482564e-16 9.192352322719065e-17 8.78452537685416e-16 0.9947956566579552 -0.10139137105009133
10500000.0 0.9937631688771681 -0.11101239475147526 9.865479222872819e-17 8.978401260344526e-16 1.0126624261125336e-16 9.216064823118354e-16 0.9942664019057198 -0.1064325583788858
11000000.0 0.9931598908981224 -0.11626335517288484 1.0818866787727975e-16 9.397726478232622e-16 1.1105248555638423e-16 9.646489826185837e-16 0.9937117557367269 -0.11146962316017624
11500000.0 0.9925290679572796 -0.12150942283222883 1.1815309905063604e-16 9.815916343250456e-16 1.2128068108432935e-16 1.0075749422924732e-15 0.9931317608475565 -0.11650237431706933
12000000.0 0.9918707528095939 -0.12675038200700994 1.285464880412838e-16 1.023292145866939e-15 1.3194918919531778e-16 1.0503792909045932e-15 0.992526461843339 -0.12153062132408543
12500000.0 0.9911850004506036 -0.13198601768389137 1.3936717037753382e-16 1.0648692690536689e-15 1.430563013581156e-16 1.0930569849992072e-15 0.9918959052292298 -0.12655417423086487
13000000.0 0.9904718681050261 -0.13721611558760988 1.5061341532008704e-16 1.1063181178181472e-15 1.5460024101973643e-16 1.1356030091721571e-15 0.9912401394015313 -0.13157284368572134
13500000.0 0.9897314152148983 -0.14244046220967363 1.6228342637750383e-16 1.1476338344614454e-15 1.665791641345554e-16 1.1780123771383658e-15 0.9905592146384711 -0.1365864409590359
14000000.0 0.9889637034272861 -0.14765884483683966 1.7437534184032477e-16 1.1888115906817768e-15 1.7899115971256866e-16 1.220280132788059e-15 0.9898531830906314 -0.14159477796648517
14500000.0 0.9881687965815562 -0.15287105157936234 1.86887235333581e-16 1.229846588592107e-15 1.9183425038652873e-16 1.2624013512313098e-15 0.9891220987710381 -0.1465976672920988
15000000.0 0.9873467606962124 -0.15807687139900364 1.9981711638742178e-16 1.2707340617260153e-15 2.0510639299767706e-16 1.3043711398305276e-15 0.988366017544911 -0.15159492221113913
15500000.0 0.9864976639553152 -0.16327609413680008 2.1316293102558479e-16 1.3114692760314638e-15 2.1880547919979145e-16 1.3461846392205317e-15 0.9875849971190829 -0.15658635671279902
16000000.0 0.985621576694473 -0.16846851054057688 2.2692256237141817e-16 1.3520475308520974e-15 2.3292933608124983e-16 1.3878370243158296e-15 0.9867790970310839 -0.1615717855227104
16500000.0 0.9847185713864238 -0.17365391229220337 2.4109383127116394e-16 1.3924641598957457e-15 2.4747572680481234e-16 1.4293235053047507e-15 0.9859483786378994 -0.1665510241252592
17000000.0 0.9837887226262051 -0.17883209203458136 2.556744969341986e-16 1.4327145321897768e-15 2.624423512648097e-16 1.4706393286300946e-15 0.9850929051044095 -0.17152388878570085
17500000.0 0.9828321071159204 -0.18400284339836048 2.7066225758992377e-16 1.4727940530229784e-15 2.7782684676142178e-16 1.5117797779559396e-15 0.9842127413915039 -0.1764901965720709
18000000.0 0.9818488036491075 -0.18916596102837227 2.8605475116098825e-16 1.512698164873632e-15 2.9362678869172027e-16 1.5527401751202871e-15 0.9833079542438862 -0.1814497653768852
18500000.0 0.9808388930947157 -0.19432124060977762 3.0184955595252035e-16 1.5524223483234803e-15 3.0983969125714583e-16 1.593515881073219e-15 0.9823786121775631 -0.18640241393862497
19000000.0 0.9798024583806941 -0.19946847889391947 3.1804419135703977e-16 1.5919621229572626e-15 3.264630081870791e-16 1.6341022968002493e-15 0.9814247854670334 -0.1913479618630014
19500000.0 0.9787395844772038 -0.20460747372387605 3.346361185747146e-16 1.6313130482475413e-15 3.4349413347816295e-16 1.674494864230564e-15 0.9804465461321697 -0.1962862296439949
20000000.0 0.9776503583794518 -0.2097380240597055 3.5162274134861677e-16 1.670470724424502e-15 3.6093040214902134e-16 1.7146890671298566e-15 0.9794439679248068 -0.20121703868466373
20500000.0 0.9765348690901621 -0.21485993000337913 3.6900140671463274e-16 1.709430793330477e-15 3.787690910100201e-16 1.75468043197746e-15 0.9784171263150341 -0.20614021131771754
21000000.0 0.9753932076016809 -0.21997299282339397 3.867694057656716e-16 1.7481889392588893e-15 3.97007419447704e-16 1.7944645288275065e-15 0.9773660984772021 -0.2110555708258508
21500000.0 0.9742254668777328 -0.22507701497906102 4.0492397442981386e-16 1.7867408897773844e-15 4.1564255022354417e-16 1.8340369721538446e-15 0.9762909632756471 -0.21596294146183287
22000000.0 0.9730317418348249 -0.23017180014446204 4.2346229426203257e-16 1.8250824165348634e-15 4.3467159028661583e-16 1.8733934216784333e-15 0.9751918012501323 -0.22086214846834704
22500000.0 0.9718121293233122 -0.23525715323206947 4.4238149324912167e-16 1.863209336052204e-15 4.540915915998336e-16 1.9125295831829974e-15 0.974068694601021 -0.2257530180975782
23000000.0 0.9705667281081298 -0.24033288041602544 4.616786466274528e-16 1.901117510496406e-15 4.738995519793559e-16 1.951441209303664e-15 0.9729217271741787 -0.23063537763054157
23500000.0 0.9692956388491956 -0.24539878915507118 4.813507777131855e-16 1.9388028484379633e-15 4.940924159467697e-16 1.9901241003083793e-15 0.9717509844456125 -0.2355090553961508
24000000.0 0.9679989640814958 -0.2504546882151261 5.013948587445437e-16 1.9762613055912103e-15 5.14667075593664e-16 2.0285741048568602e-15 0.970556553505851 -0.2403738807900183
24500000.0 0.9666768081948576 -0.25550038769150785 5.218078117357773e-16 2.0134888855374806e-15 5.356203714581948e-16 2.066787120742884e-15 0.9693385230440745 -0.24522968429298833
25000000.0 0.9653292774134153 -0.2605356990307907 5.425865093424123e-16 2.0504816404308354e-15 5.569490934132407e-16 2.10475909561871e-15 0.9680969833319936 -0.2500762974893945
25500000.0 0.9639564797747788 -0.26556043505229576 5.637277757373971e-16 2.0872356716862024e-15 5.7864998156573985e-16 2.1424860277014247e-15 0.9668320262074873 -0.25491355308504005
26000000.0 0.962558525108912 -0.270574409969211 5.852283874977521e-16 2.1237471306497437e-15 6.007197271668103e-16 2.1799639664610596e-15 0.9655437450580049 -0.25974128492489873
26500000.0 0.9611355250167302 -0.27557743940933477 6.070850745013174e-16 2.1600122192512745e-15 6.231549735322347e-16 2.2171890132902787e-15 0.9642322348037355 -0.26455932801052967
27000000.0 0.9596875928484162 -0.2805693404354383 6.292945208331969e-16 2.1960271906385845e-15 6.459523169728993e-16 2.2541573221554883e-15 0.9628975918805517 -0.269367518517205
27500000.0 0.9582148436814771 -0.285549931565246 6.518533657014976e-16 2.2317883497935104e-15 6.691083077347725e-16 2.290865100229221e-15 0.9615399142227334 -0.2741656938107469
28000000.0 0.9567173942985338 -0.2905190327910261 6.747582043619504e-16 2.2672920541296133e-15 6.926194509480019e-16 2.3273086085036316e-15 0.9601593012454741 -0.2789536924640694
28500000.0 0.9551953631648596 -0.29547646559879 6.98005589051012e-16 2.302534714071351e-15 7.164822075847151e-16 2.3634841623850037e-15 0.9587558538271851 -0.28373135427342555
29000000.0 0.9536488704056799 -0.3004220529870986 7.215920299270299e-16 2.3375127936146083e-15 7.406929954250984e-16 2.399388132269113e-15 0.957329674291587 -0.2884985202743509
29500000.0 0.9520780377832275 -0.30535561948546713 7.455139960190616e-16 2.3722228108684897e-15 7.65248190031331e-16 2.435016944097362e-15 0.9558808663896113 -0.29325503275730724
30000000.0 0.9504829886735734 -0.31027699117237034 7.697679161829378e-16 2.406661338578263e-15 7.901441257289569e-16 2.4703670798935705e-15 0.954409535281106 -0.29800073528301996
30500000.0 0.9488638480432362 -0.3151859956928438 7.943501800641531e-16 2.440825004629381e-15 8.15377096595263e-16 2.5054350782813344e-15 0.952915787516357 -0.30273547269750756
31000000.0 0.9472207424255787 -0.3200824622756762 8.192571390671696e-16 2.4747104925324883e-15 8.409433574542417e-16 2.5402175349818776e-15 0.9513997310174293 -0.3074590911468009
31500000.0 0.9455537998969992 -0.324966221750193 8.4448510733072e-16 2.508314541889354e-15 8.668391248777098e-16 2.574711103292308e-15 0.9498614750593307 -0.31217143809134906
32000000.0 0.9438631500529251 -0.32983710656262805 8.700303627087014e-16 2.541633948839668e-15 8.930605781921671e-16 2.6089124945442474e-15 0.9483011302510143 -0.31687236232011307
32500000.0 0.9421489239836212 -0.3346949507920799 8.958891477562348e-16 2.574665566488646e-15 9.19603860490959e-16 2.6428184785427575e-15 0.9467188085162096 -0.3215617139643398
33000000.0 0.9404112542498116 -0.3395395901660511 9.220576707204855e-16 2.6074063053154175e-15 9.46465079651322e-16 2.676425883985532e-15 0.9451146230741059 -0.32623934451101966
33500000.0 0.9386502748581348 -0.3443708620755711 9.485321065358278e-16 2.6398531335621495e-15 9.736403093558942e-16 2.709731598862325e-15 0.9434886884198774 -0.33090510681602253
34000000.0 0.9368661212364304 -0.3491886055898962 9.753085978229468e-16 2.6720030776039055e-15 1.0011255901182599e-15 2.7427325708345973e-15 0.9418411203050704 -0.3355588551169129
34500000.0 0.9350589302088701 -0.35399266147078895 1.0023832558914558e-15 2.7038532222992043e-15 1.0289169303121122e-15 2.77542580759536e-15 0.9401720357178464 -0.3402004450454408
35000000.0 0.9332288399709413 -0.358782872186375 1.0297521617456362e-15 2.735400711321307e-15 1.057010307203609e-15 2.8078083772092236e-15 0.9384815528630964 -0.3448297336397071
35500000.0 0.9313759900642901 -0.36355908192457415 1.0574113670928798e-15 2.766642747470218e-15 1.0854016679865147e-15 2.8398774084326643e-15 0.9367697911424293 -0.34944657935600565
36000000.0 0.9295005213514298 -0.36832113660610577 1.085356895354427e-15 2.797576592965419e-15 1.1140869308196913e-15 2.871630091014504e-15 0.9350368711340352 -0.3540508420803337
36500000.0 0.9276025759903308 -0.3730688838970703 1.113584742678017e-15 2.828199569719387e-15 1.1430619858665526e-15 2.9030636759766646e-15 0.9332829145724378 -0.35864238313957814
37000000.0 0.9256822974088861 -0.37780217322109927 1.142090878952015e-15 2.858509059591886e-15 1.1723226963360387e-15 2.9341754758752e-15 0.9315080443281392 -0.36322106531236986
37500000.0 0.9237398302792774 -0.38252085577108164 1.1708712488206555e-15 2.8885025046251347e-15 1.2018648995247315e-15 2.964962865041682e-15 0.9297123843871592 -0.36778675283960893
38000000.0 0.9217753204922352 -0.38722478452046066 1.1999217726999806e-15 2.9181774072598582e-15 1.2316844078596862e-15 2.9954232798049718e-15 0.9278960598304795 -0.37233931143466
38500000.0 0.9197889151312081 -0.39191381423410093 1.2292383477940867e-15 2.9475313305323002e-15 1.261777009941577e-15 3.025554218693449e-15 0.9260591968133982 -0.376878608293215
39000000.0 0.917780762446451 -0.3965878014787296 1.2588168491112955e-15 2.976561898252283e-15 1.2921384715877713e-15 3.055353242617786e-15 0.9242019225447994 -0.38140451210282494
39500000.0 0.9157510118290333 -0.40124660463294803 1.288653130479864e-15 3.0052667951623746e-15 1.3227645368749192e-15 3.08481797503432e-15 0.9223243652663425 -0.3859168930521002
40000000.0 0.9136998137847792 -0.4058900838968146 1.3187430255628375e-15 3.033643767078251e-15 1.353650929180677e-15 3.113946102089146e-15 0.9204266542315821 -0.3904156228395779
40500000.0 0.9116273199081516 -0.41051810130100175 1.3490823488716865e-15 3.061690621010374e-15 1.3847933522241722e-15 3.142735372743001e-15 0.9185089196850188 -0.39490057468225787
41000000.0 0.9095336828560784 -0.4151305207155255 1.3796668967783411e-15 3.0894052252670597e-15 1.4161874911048266e-15 3.17118359887707e-15 0.9165712928410888 -0.3993716233238052
41500000.0 0.907419056321736 -0.41972720785804707 1.4104924485252529e-15 3.1167855095390677e-15 1.4478290133391568e-15 3.1992886553798087e-15 0.9146139058631018 -0.40382864504242255
42000000.0 0.9052835950082969 -0.4243080303017516 1.4415547672331256e-15 3.143829464965833e-15 1.479713569895179e-15 3.2270484802149284e-15 0.9126368918421259 -0.40827151765838976
42500000.0 0.903127454602646 -0.4288728574828014 1.4728496009059477e-15 3.1705351441834518e-15 1.5118367962240462e-15 3.254461074470661e-15 0.9106403847758336 -0.4127001205412721
43000000.0 0.9009507917490747 -0.43342156070736493 1.5043726834329668e-15 3.196900661354579e-15 1.544194313288545e-15 3.2815245023904356e-15 0.9086245195473043 -0.4171143346167978
43500000.0 0.8987537640229641 -0.4379540131582264 1.5361197355872662e-15 3.2229241921803638e-15 1.5767817285881057e-15 3.308236891385138e-15 0.9065894319038014 -0.4215140423734055
44000000.0 0.8965365299044562 -0.44247008990097325 1.5680864660205898e-15 3.2486039738945862e-15 1.6095946371799585e-15 3.33459643202709e-15 0.9045352584355211 -0.42589912786846296
44500000.0 0.8942992487521296 -0.44696966788976505 1.6002685722540619e-15 3.273938305240131e-15 1.6426286226960813e-15 3.3606013780258992e-15 0.9024621365543172 -0.43026947673415467
45000000.0 0.892042080776682 -0.4514526259726867 1.6326617416644964e-15 3.298925546427999e-15 1.6758792583556156e-15 3.3862500461863878e-15 0.9003702044724184 -0.4346249761830451
45500000.0 0.8897651870146278 -0.45591884489668555 1.665261652465931e-15 3.3235641190789875e-15 1.709342107972382e-15 3.411540816348725e-15 0.8982596011811308 -0.43896551501331244
46000000.0 0.8874687293020163 -0.4603682073120949 1.6980639746860841e-15 3.3478525061482428e-15 1.7430127269571864e-15 3.4364721313109906e-15 0.896130466429538 -0.4432909836136587
46500000.0 0.8851528702481846 -0.46480059777674937 1.7310643711374057e-15 3.3717892518328616e-15 1.776886663314573e-15 3.4610424967343212e-15 0.8939829407032054 -0.4476012739678938
47000000.0 0.8828177732095402 -0.46921590275968833 1.7642584983824086e-15 3.395372961462727e-15 1.8109594586337074e-15 3.4852504810308577e-15 0.8918171652028891 -0.45189627965919754
47500000.0 0.8804636022633922 -0.4736140106444557 1.7976420076929773e-15 3.4186023013747743e-15 1.8452266490730865e-15 3.509094715234696e-15 0.8896332818232598 -0.45617589587406115
48000000.0 0.8780905221818316 -0.47799481173199604 1.831210546003356e-15 3.441475998770917e-15 1.8796837663387387e-15 3.5325738928560293e-15 0.8874314331316436 -0.4604400194059067
48500000.0 0.8756986984056678 -0.48235819824314824 1.8649597568564937e-15 3.46399284155977e-15 1.9143263386556366e-15 3.555686769718706e-15 0.8852117623467854 -0.4646885486583888
49000000.0 0.8732882970184296 -0.48670406432074337 1.8988852813435102e-15 3.486151678182482e-15 1.9491498917320145e-15 3.57843216378143e-15 0.8829744133176449 -0.46892138364838115
49500000.0 0.8708594847204378 -0.4910323060313059 1.932982759035941e-15 3.5079514174227984e-15 1.984149949716304e-15 3.600808954942813e-15 0.8807195305022203 -0.4731384260086464
50000000.0 0.8684124288029536 -0.49534282136636354 1.96724782891053e-15 3.5293910282016458e-15 2.0193220361463962e-15 3.6228160848305115e-15 0.8784472589464174 -0.4773395789901938
50500000.0 0.8659472971224096 -0.4996355102433676 2.0016761302662695e-15 3.550469539356426e-15 2.0546616748909643e-15 3.644452556574684e-15 0.8761577442629573 -0.48152474746432505
51000000.0 0.8634642580747336 -0.5039102745062295 2.0362633036334565e-15 3.571186039405283e-15 2.090164391082577e-15 3.66571743456601e-15 0.8738511326103365 -0.48569383792437343
51500000.0 0.8609634805697668 -0.5081670179254725 2.071004991674476e-15 3.5915396762965505e-15 2.1258257120423298e-15 3.686609844198518e-15 0.8715275706718404 -0.48984675848713444
52000000.0 0.8584451340057822 -0.5124056461980067 2.1058968400760804e-15 3.6115296571436386e-15 2.1616411681957417e-15 3.707128971597442e-15 0.8691872056346142 -0.4939834188939918
52500000.0 0.8559093882441149 -0.516626066946528 2.1409344984329237e-15 3.631155247945605e-15 2.1976062939796775e-15 3.7272740633324005e-15 0.8668301851687985 -0.4981037305117422
53000000.0 0.8533564135839047 -0.5208281897185458 2.1761136211221056e-15 3.65041577329365e-15 2.233716628740044e-15 3.747044426116129e-15 0.864456657406734 -0.502207606333121
53500000.0 0.8507863807369574 -0.5250119259850423 2.2114298681685014e-15 3.669310616063794e-15 2.269967717620021e-15 3.766439426489014e-15 0.8620667709222368 -0.5062949609770285
54000000.0 0.8481994608027356 -0.5291771891387701 2.24687890610066e-15 3.6878392170960095e-15 2.3063551124386187e-15 3.785458490489727e-15 0.8596606747099531 -0.5103657106884629
54500000.0 0.8455958252434761 -0.5333238944921864 2.282456408797041e-15 3.706001074860021e-15 2.3428743725593154e-15 3.8041011033121976e-15 0.8572385181647962 -0.5144197733381619
55000000.0 0.8429756458594471 -0.5374519592750344 2.3181580583224058e-15 3.723795745108098e-15 2.379521065748587e-15 3.822366808949195e-15 0.854800451061469 -0.5184570684219544
55500000.0 0.8403390947643475 -0.541561302631572 2.3539795457541373e-15 3.741222840515054e-15 2.4162907690240997e-15 3.840255209822804e-15 0.8523466235340775 -0.5224775170598233
56000000.0 0.8376863443608531 -0.5456518456174528 2.3899165719983154e-15 3.7582820303057534e-15 2.4531790694923884e-15 3.8577659664020814e-15 0.8498771860558393 -0.5264810419946893
56500000.0 0.8350175673163145 -0.5497235111962633 2.425964848595346e-15 3.774973039870376e-15 2.490181565175811e-15 3.874898796808121e-15 0.8473922894188929 -0.5304675675909095
57000000.0 0.8323329365386131 -0.5537762242357223 2.4621200985149727e-15 3.791295650367728e-15 2.5272938658286043e-15 3.891653476406873e-15 0.8448920847142092 -0.5344370198325008
57500000.0 0.8296326251521832 -0.5578099115035463 2.498378056940501e-15 3.80724969831686e-15 2.5645115937418675e-15 3.908029837389954e-15 0.8423767233116103 -0.5383893263210872
58000000.0 0.8269168064741935 -0.5618245016629817 2.534734472042054e-15 3.8228350751772875e-15 2.6018303845372852e-15 3.924027768343745e-15 0.8398463568399002 -0.5423244162735749
58500000.0 0.8241856539909119 -0.5658199252680177 2.571185105738734e-15 3.838051726918074e-15 2.6392458879494657e-15 3.939647213807082e-15 0.8373011371671122 -0.5462422205195612
59000000.0 0.8214393413342349 -0.5697961147582709 2.6077257344494952e-15 3.852899653576078e-15 2.6767537685966875e-15 3.954888173817797e-15 0.8347412163808746 -0.550142671498476
59500000.0 0.8186780422584079 -0.5737530044535603 2.644352149832617e-15 3.867378908803608e-15 2.7143497067399507e-15 3.969750703448409e-15 0.8321667467688963 -0.5540257032564598
60000000.0 0.8159019306169265 -0.5776905305481683 2.68106015951364e-15 3.881489599405845e-15 2.752029399030178e-15 3.984234912331294e-15 0.8295778807995874 -0.5578912514429876
60500000.0 0.8131111803396276 -0.5816086311047944 2.717845587801609e-15 3.895231884868206e-15 2.7897885592434155e-15 3.998340964173541e-15 0.8269747711027988 -0.561739253307232
61000000.0 0.8103059654099763 -0.5855072460482093 2.7547042763935216e-15 3.908605976874044e-15 2.8276229190039387e-15 4.012069076261887e-15 0.8243575704507056 -0.5655696476941773
61500000.0 0.8074864598425484 -0.5893863171586105 2.791632085066876e-15 3.9216121388129e-15 2.865528228495118e-15 4.0254195189579486e-15 0.8217264317388215 -0.5693823750404848
62000000.0 0.8046528376607167 -0.593245788064687 2.828624892360171e-15 3.934250685279614e-15 2.9035002571579407e-15 4.038392615184075e-15 0.8190815079671563 -0.5731773773701119
62500000.0 0.8018052728745421 -0.597085604236398 2.8656785962413e-15 3.9465219815645965e-15 2.9415347943770995e-15 4.050988739900131e-15 0.8164229522215148 -0.5769545982896892
63000000.0 0.798943939458873 -0.6009057129774683 2.9027891147637217e-15 3.958426443135521e-15 2.9796276501545263e-15 4.063208319571462e-15 0.8137509176549462 -0.5807139829836625
63500000.0 0.7960690113316582 -0.6047060634176065 2.9399523867103064e-15 3.9699645351107406e-15 3.017774655770285e-15 4.075051831628378e-15 0.8110655574693393 -0.5844554782091962
64000000.0 0.793180662332477 -0.6084866065044562 2.977164372224819e-15 3.981136771724726e-15 3.05597166443077e-15 4.086519803917439e-15 0.8083670248971743 -0.5881790322908496
64500000.0 0.7902790662012856 -0.612247294995273 3.0144210534309048e-15 3.9919437157857765e-15 3.0942145519040754e-15 4.097612814144811e-15 0.8056554731834263 -0.5918845951150224
65000000.0 0.7873643965573894 -0.6159880834483483 3.051718435038572e-15 4.0023859781263306e-15 3.1324992171425344e-15 4.108331489312028e-15 0.8029310555676321 -0.5955721181241813
65500000.0 0.7844368268786394 -0.6197089282141717 3.0890525449380657e-15 4.012464217046142e-15 3.1708215828923086e-15 4.1186765051444214e-15 0.8001939252661141 -0.599241554310862
66000000.0 0.7814965304808557 -0.6234097874263435 3.1264194347810826e-15 4.02217913774859e-15 3.209177596289993e-15 4.128648585512522e-15 0.7974442354543707 -0.6028928582114591
66500000.0 0.7785436804974849 -0.6270906209922437 3.1638151805493137e-15 4.031531491770457e-15 3.247563229446207e-15 4.1382485018467344e-15 0.7946821392496332 -0.6065259858998022
67000000.0 0.7755784498594904 -0.6307513905834586 3.2012358831102197e-15 4.040522076405395e-15 3.285974480016079e-15 4.147477072545538e-15 0.7919077896935891 -0.6101408949805228
67500000.0 0.7726010112754781 -0.6343920596259717 3.2386776687600487e-15 4.049151734121411e-15 3.324407371756638e-15 4.156335162377566e-15 0.7891213397352818 -0.6137375445822196
68000000.0 0.7696115372120637 -0.638012593290128 3.2761366897540354e-15 4.0574213519726265e-15 3.362857955071054e-15 4.164823681877784e-15 0.7863229422141772 -0.6173158953504186
68500000.0 0.7666101998744786 -0.6416129584803691 3.313609124823785e-15 4.065331861005604e-15 3.4013223075397087e-15 4.172943586738105e-15 0.7835127498434137 -0.6208759094403422
69000000.0 0.7635971711874209 -0.6451931238247537 3.3510911796817936e-15 4.072884235660501e-15 3.439796534438076e-15 4.1806958771926896e-15 0.7806909151932235 -0.6244175505094788
69500000.0 0.760572622776153 -0.6487530596642601 3.3885790875131224e-15 4.0800794931673475e-15 3.478276769241412e-15 4.188081597398248e-15 0.7778575906745395 -0.6279407837099694
70000000.0 0.7575367259478447 -0.652292738041884 3.4260691094542095e-15 4.086918692937711e-15 3.5167591741162337e-15 4.195101834809593e-15 0.7750129285227801 -0.631445575680805
70500000.0 0.7544896516731671 -0.655812132691529 3.463557535058807e-15 4.093402935952013e-15 3.555239940398598e-15 4.201757719550741e-15 0.7721570807818211 -0.6349318945398446
71000000.0 0.7514315705681381 -0.6593112190267008 3.501040682751061e-15 4.099533364142774e-15 3.593715289059177e-15 4.2080504237818474e-15 0.7692901992881511 -0.6383997098756555
71500000.0 0.7483626528762212 -0.6627899741290113 3.5385149002657667e-15 4.105311159774078e-15 3.6321814711551546e-15 4.213981161062215e-15 0.7664124356552157 -0.6418489927391804
72000000.0 0.7452830684506769 -0.6662483767364893 3.57597656507576e-15 4.110737544817463e-15 3.670634768268942e-15 4.21955118570969e-15 0.7635239412579515 -0.6452797156352348
72500000.0 0.7421929867371733 -0.6696864072317151 3.61342208480653e-15 4.115813780324568e-15 3.7090714929337625e-15 4.22476179215669e-15 0.7606248672175072 -0.6486918525138387
73000000.0 0.7390925767566506 -0.6731040476297734 3.650847897638036e-15 4.120541165796754e-15 3.747487989046102e-15 4.229614314303139e-15 0.7577153643861637 -0.6520853787613874
73500000.0 0.7359820070884485 -0.676501281566039 3.688250472693787e-15 4.124921038551961e-15 3.785880632265093e-15 4.234110124866572e-15 0.7547955833324391 -0.6554602711916652
74000000.0 0.7328614458536873 -0.6798780942837908 3.7256263104172045e-15 4.128954773089084e-15 3.824245830398837e-15 4.2382506347296776e-15 0.751865674326397 -0.6588165080367037
74500000.0 0.7297310606989169 -0.6832344726216705 3.762971942935322e-15 4.1326437804500784e-15 3.862580023777729e-15 4.242037292285523e-15 0.7489257873251443 -0.662154068937491
75000000.0 0.7265910187800211 -0.6865704050009803 3.800283934409872e-15 4.135989507580076e-15 3.900879685614838e-15 4.245471582780724e-15 0.7459760719585309 -0.6654729349345369
75500000.0 0.7234414867463889 -0.689885881412833 3.837558881375795e-15 4.138993436685755e-15 3.93914132235339e-15 4.248555027656849e-15 0.7430166775150451 -0.6687730884582942
76000000.0 0.7202826307253465 -0.6931808934051549 3.874793413067259e-15 4.14165708459219e-15 3.977361474001392e-15 4.251289183890219e-15 0.7400477529279098 -0.6720545133194422
76500000.0 0.7171146163068546 -0.6964554340695487 3.911984191731199e-15 4.143982002098432e-15 4.015536714453495e-15 4.2536756433304486e-15 0.737069446761378 -0.675317194699037
77000000.0 0.7139376085284675 -0.6997094980280205 3.9491279129285174e-15 4.145969773332067e-15 4.0536636518001536e-15 4.2557160320379145e-15 0.7340819071972312 -0.6785611191385318
77500000.0 0.7107517718605619 -0.7029430814195784 3.986221305822941e-15 4.14762201510297e-15 4.0917389286241366e-15 4.257412009620401e-15 0.7310852820214773 -0.6817862745296704
78000000.0 0.7075572701918248 -0.706156181886703 4.0232611334576574e-15 4.148940376256487e-15 4.129759222284477e-15 4.258765268569159e-15 0.728079718611253 -0.684992650104258
78500000.0 0.704354266815011 -0.7093487985616992 4.060244193019784e-15 4.1499265370262884e-15 4.167721245187954e-15 4.259777533594631e-15 0.7250653639219293 -0.6881802364238138
79000000.0 0.7011429244129654 -0.712520932052934 4.097167316092781e-15 4.150582208387089e-15 4.205621745048178e-15 4.260450560962041e-15 0.7220423644744209 -0.69134902536911
79500000.0 0.6979234050449086 -0.7156725844309598 4.13402736889685e-15 4.150909131407486e-15 4.2434575051323545e-15 4.260786137827095e-15 0.7190108663426983 -0.6944990101295987
80000000.0 0.6946958701329901 -0.7188037592145387 4.170821252517462e-15 4.15090907660311e-15 4.281225344495865e-15 4.260786081572016e-15 0.7159710151415078 -0.6976301851927321
80500000.0 0.6914604804491078 -0.7219144613565601 4.207545903122057e-15 4.150583843290311e-15 4.318922118204699e-15 4.2604522391421134e-15 0.7129229560142942 -0.7007425463331791
81000000.0 0.6882173961019885 -0.7250046972298653 4.244198292165049e-15 4.149935258940577e-15 4.356544717545889e-15 4.259786486383122e-15 0.709866833621329 -0.7038360906019429
81500000.0 0.6849667765245375 -0.7280744746129826 4.28077542658124e-15 4.1489651785359106e-15 4.394090070226038e-15 4.258790727379508e-15 0.7068027921280461 -0.7069108163153843
82000000.0 0.6817087804614521 -0.731123802675774 4.317274348967696e-15 4.14767548392535e-15 4.431555140558017e-15 4.257466893793963e-15 0.703730975193581 -0.7099667230441493
82500000.0 0.6784435659570945 -0.734152691965 4.3536921377542585e-15 4.1460680831828395e-15 4.468936929635988e-15 4.255816944208268e-15 0.7006515259595181 -0.7130038116020115
83000000.0 0.6751712903436362 -0.7371611543898116 4.390025907362769e-15 4.144144909966629e-15 4.5062324754988435e-15 4.253842863465747e-15 0.6975645870388416 -0.7160220840346304
83500000.0 0.6718921102294575 -0.7401492032071639 4.426272808355108e-15 4.141907922880424e-15 4.543438853282156e-15 4.251546662015495e-15 0.6944703005050954 -0.7190215436082248
84000000.0 0.6686061814878134 -0.7431168530071689 4.4624300275701895e-15 4.139359104836432e-15 4.580553175358813e-15 4.248930375258572e-15 0.6913688078817437 -0.722002194798173
84500000.0 0.6653136592457605 -0.7460641196983796 4.498494788250018e-15 4.136500462420519e-15 4.617572591468401e-15 4.2459960628963556e-15 0.6882602501317431 -0.7249640432775359
85000000.0 0.6620146978733429 -0.7489910204930188 4.534464350154933e-15 4.13333402525965e-15 4.654494288835503e-15 4.242745808281227e-15 0.6851447676473162 -0.7279070959055141
85500000.0 0.6587094509730395 -0.7518975738921523 4.57033600966816e-15 4.1298618453917666e-15 4.691315492277023e-15 4.239181717769783e-15 0.6820225002399317 -0.7308313607158338
86000000.0 0.655398071369468 -0.7547837996708138 4.606107099889795e-15 4.126085996638294e-15 4.7280334642986425e-15 4.235305920078719e-15 0.6788935871304873 -0.7337368469050704
86500000.0 0.6520807110993485 -0.7576497188630806 4.641774990720356e-15 4.122008573979448e-15 4.764645505180601e-15 4.2311205656436094e-15 0.6757581669397011 -0.7366235648209161
87000000.0 0.6487575214017215 -0.7604953537471137 4.677337088934033e-15 4.1176316929324684e-15 4.801148953052875e-15 4.2266278259806805e-15 0.6726163776787022 -0.7394915259503868
87500000.0 0.645428652708424 -0.7633207278301557 4.712790838241756e-15 4.1129574889329924e-15 4.837541183959919e-15 4.221829893051807e-15 0.6694683567398272 -0.7423407429079772
88000000.0 0.6420942546348147 -0.766125865833499 4.748133719344232e-15 4.10798811671967e-15 4.873819611915108e-15 4.2167289786328366e-15 0.66631424088762 -0.7451712294237687
88500000.0 0.6387544759707589 -0.7689107936774225 4.7833632499750774e-15 4.1027257497222e-15 4.909981688945006e-15 4.211327313685435e-15 0.6631541662500317 -0.7479830003314875
89000000.0 0.6354094646718573 -0.771675538466108 4.818476984934198e-15 4.097172579452943e-15 4.946024905123634e-15 4.20562714773258e-15 0.6599882683098227 -0.7507760715565229
89500000.0 0.6320593678509298 -0.7744201284725304 4.8534725161115215e-15 4.091330814902204e-15 4.981946788596828e-15 4.199630748237852e-15 0.6568166818961678 -0.7535504601039035
90000000.0 0.6287043317697467 -0.7771445931233341 4.88834747250127e-15 4.085202681937403e-15 5.017744905596892e-15 4.1933403999886865e-15 0.6536395411764582 -0.7563061840462387
90500000.0 0.6253445018310041 -0.7798489629836983 4.923099520206895e-15 4.078790422706171e-15 5.053416860447666e-15 4.186758404483686e-15 0.6504569796483033 -0.7590432625116271
91000000.0 0.6219800225705483 -0.7825332697421868 4.9577263624367946e-15 4.072096295043606e-15 5.088960295560121e-15 4.179887079324172e-15 0.647269130131734 -0.7617617156715325
91500000.0 0.6186110376498409 -0.7851975461956 4.9922257394910035e-15 4.065122571883717e-15 5.124372891418706e-15 4.17272875761005e-15 0.6440761247615981 -0.7644615647286351
92000000.0 0.615237689848668 -0.7878418262338196 5.026595428738969e-15 4.057871540675249e-15 5.159652366558529e-15 4.165285787340181e-15 0.6408780949801576 -0.7671428319046587
92500000.0 0.6118601210580871 -0.7904661448246588 5.060833244588578e-15 4.050345502801978e-15 5.1947964775335686e-15 4.1575605308173226e-15 0.6376751715298761 -0.7698055404281748
93000000.0 0.6084784722736147 -0.7930705379987137 5.094937038446565e-15 4.042546773007595e-15 5.229803018876034e-15 4.149555364057796e-15 0.6344674844464071 -0.7724497145223924
93500000.0 0.6050928835886489 -0.7956550428342296 5.128904698670479e-15 4.034477678825283e-15 5.26466982304705e-15 4.1412726762059505e-15 0.6312551630517689 -0.7750753793929285
94000000.0 0.6017034941881269 -0.7982196974419741 5.1627341505123236e-15 4.026140560012105e-15 5.299394760378824e-15 4.1327148689536004e-15 0.6280383359477155 -0.7776825612155701
94500000.0 0.5983104423424166 -0.8007645409501294 5.196423356054053e-15 4.017537767988307e-15 5.333975739008427e-15 4.12388435596447e-15 0.6248171310092993 -0.7802712871240257
95000000.0 0.594913865401436 -0.8032896134892031 5.229970314135077e-15 4.008671665281628e-15 5.368410704803358e-15 4.114783562303789e-15 0.6215916753786211 -0.7828415851976703
95500000.0 0.5915138997890035 -0.8057949561769596 5.263373060271851e-15 3.999544624976694e-15 5.402697641279047e-15 4.105414923873137e-15 0.61836209545877 -0.7853934844492855
96000000.0 0.5881106809974148 -0.8082806111033801 5.296629666569845e-15 3.9901590301696385e-15 5.436834569508458e-15 4.095780886850599e-15 0.61512851690795 -0.7879270148128015
96500000.0 0.5847043435822443 -0.8107466213156496 5.32973824162791e-15 3.980517273427984e-15 5.470819548023944e-15 4.085883907136372e-15 0.6118910646337961 -0.7904422071310394
97000000.0 0.5812950211573668 -0.8131930308031752 5.362696930435259e-15 3.9706217562559e-15 5.504650672711487e-15 4.07572644980385e-15 0.6086498627878675 -0.7929390931434563
97500000.0 0.577882846390202 -0.8156198844826401 5.395503914261201e-15 3.9604748885648965e-15 5.5383260766975254e-15 4.0653109885563195e-15 0.6054050347603332 -0.7954177054739009
98000000.0 0.5744679509971788 -0.8180272281830965 5.428157410537806e-15 3.950079088150069e-15 5.571843930228512e-15 4.054640005189336e-15 0.6021567031748336 -0.797878077618377
98500000.0 0.5710504657394087 -0.8204151086310961 5.460655672735595e-15 3.939436780171898e-15 5.605202440543302e-15 4.043715989058801e-15 0.5989049898835233 -0.8003202439328174
99000000.0 0.5676305204185798 -0.8227835734358679 5.492996990232468e-15 3.928550396643751e-15 5.638399851738621e-15 4.032541436554909e-15 0.5956500159622955 -0.8027442396208747
99500000.0 0.5642082438730603 -0.8251326710745387 5.52517968817601e-15 3.917422375925111e-15 5.671434444627726e-15 4.021118850581951e-15 0.5923919017061812 -0.8051501007217305
100000000.0 0.5607837639742084 -0.8274624508774051 5.557202127339268e-15 3.906055162220575e-15 5.7043045365923654e-15 4.009450740044061e-15 0.5891307666249266 -0.8075378640979183
100500000.0 0.557357207622892 -0.8297729630132563 5.589062703970269e-15 3.894451205084744e-15 5.737008481428306e-15 3.997539619336989e-15 0.585866729438744 -0.8099075674231763
101000000.0 0.5539287007462121 -0.8320642584747517 5.6207598496352965e-15 3.882612958932989e-15 5.769544669184466e-15 3.985388007845922e-15 0.5825999080742333 -0.8122592491703156
101500000.0 0.550498368294428 -0.8343363890638525 5.65229203105618e-15 3.870542882558202e-15 5.801911525995903e-15 3.9729984294494484e-15 0.579330419660481 -0.814592948599122
102000000.0 0.5470663342380804 -0.8365894073773175 5.683657749941702e-15 3.858243438653537e-15 5.834107513910747e-15 3.9603734120296605e-15 0.5760583805253215 -0.8169087057442831
102500000.0 0.543632721565317 -0.8388233667922552 5.71485554281327e-15 3.845717093341239e-15 5.866131130711267e-15 3.947515486988507e-15 0.5727839061917729 -0.8192065614033441
103000000.0 0.5401976522794053 -0.8410383214517437 5.7458839808250265e-15 3.832966315707527e-15 5.897980909729221e-15 3.934427188770373e-15 0.569507111374634 -0.8214865571247014
103500000.0 0.5367612473964463 -0.8432343262505152 5.776741669578537e-15 3.819993577343665e-15 5.929655419655616e-15 3.921111054390997e-15 0.5662281099772505 -0.8237487351956269
104000000.0 0.5333236269432704 -0.8454114368207083 5.807427248932172e-15 3.806801351893161e-15 5.961153264345083e-15 3.907569622972687e-15 0.5629470150884405 -0.825993138630331
104500000.0 0.529884909955527 -0.8475697095176923 5.8379393928053965e-15 3.793392114605209e-15 5.9924730826149504e-15 3.893805435285935e-15 0.559663938979584 -0.8282198111580634
105000000.0 0.5264452144759538 -0.8497092014059636 5.868276808978053e-15 3.779768341894344e-15 6.023613548039238e-15 3.8798210332974305e-15 0.5563789931018714 -0.8304287972112577
105500000.0 0.5230046575528344 -0.8518299702451173 5.898438238884824e-15 3.7659325109063755e-15 6.0545733687376556e-15 3.865618959724485e-15 0.5530922880837078 -0.832620141913715
106000000.0 0.5195633552386297 -0.8539320744758926 5.928422457404961e-15 3.751887099090604e-15 6.0853512871597985e-15 3.851201757595944e-15 0.549803933728277 -0.8347938910688334
106500000.0 0.5161214225887922 -0.856015573206303 5.958228272647541e-15 3.737634583778347e-15 6.115946079864682e-15 3.836571969819538e-15 0.5465140390112566 -0.836950091147886
107000000.0 0.5126789736607519 -0.8580805261978391 5.987854525732221e-15 3.7231774417677974e-15 6.14635655729572e-15 3.821732138755768e-15 0.543222712078688 -0.8390887892783437
107500000.0 0.509236121513076 -0.8601269938517615 6.017300090565813e-15 3.70851814891521e-15 6.176581563551379e-15 3.806684805798261e-15 0.5399300602449942 -0.8412100332322509
108000000.0 0.5057929782047986 -0.8621550371954718 6.0465638736146895e-15 3.6936591797324755e-15 6.206619976151549e-15 3.791432510960687e-15 0.5366361899911511 -0.8433138714146512
108500000.0 0.5023496547949174 -0.864164717868971 6.075644813673198e-15 3.678603006991025e-15 6.2364707057998434e-15 3.7759777924701995e-15 0.5333412069630008 -0.8454003528520658
109000000.0 0.49890626134205596 -0.866156098111409 6.1045418816282776e-15 3.663352101332137e-15 6.266132696141967e-15 3.7603231863673994e-15 0.5300452159697135 -0.84746952718103
109500000.0 0.4954629069042871 -0.8681292407477164 6.133254080220304e-15 3.6479089308836086e-15 6.295604923520252e-15 3.74447122611288e-15 0.526748320982392 -0.8495214446366817
110000000.0 0.4920196995391157 -0.8700842091753322 6.161780443800396e-15 3.632275960882805e-15 6.324886396724524e-15 3.72842444220029e-15 0.5234506251328161 -0.8515561560414102
110500000.0 0.488576746303623 -0.8720210673510211 6.190120038084287e-15 3.616455653306118e-15 6.35397615673946e-15 3.712185361775986e-15 0.5201522307123312 -0.8535737127935653
111000000.0 0.4851341532547597 -0.8739398797777852 6.218271959902882e-15 3.6004504665047745e-15 6.382873276488548e-15 3.6957565082651945e-15 0.5168532391708683 -0.8555741668562258
111500000.0 0.48169202544979456 -0.8758407114918687 6.24623533694961e-15 3.584262854847023e-15 6.411576860574746e-15 3.6791404010047374e-15 0.5135537511161055 -0.8575575707460293
112000000.0 0.478250466946912 -0.8777236280498609 6.2740093275247806e-15 3.567895268366707e-15 6.440086045018084e-15 3.662339554882296e-15 0.5102538663127599 -0.859523977522069
112500000.0 0.47480958080595753 -0.8795886955158957 6.3015931202770015e-15 3.5513501524181904e-15 6.468399996990215e-15 3.645356479982201e-15 0.5069536836820157 -0.8614734407748506
113000000.0 0.4713694690893259 -0.8814359804489478 6.3289859339417836e-15 3.5346299473376154e-15 6.4965179145461254e-15 3.6281936812377295e-15 0.5036533013010773 -0.8634060146153203
113500000.0 0.4679302328629931 -0.8832655498902325 6.3561870170775435e-15 3.5177370881105156e-15 6.524439026353125e-15 3.610853658089911e-15 0.5003528164028559 -0.8653217536639574
114000000.0 0.46449197219768645 -0.8850774713507021 6.383195647798982e-15 3.5006740040457274e-15 6.552162591417189e-15 3.5933389041528205e-15 0.4970523253757789 -0.8672207130399339
114500000.0 0.4610547861701925 -0.8868718127986478 6.410011133508126e-15 3.4834431184556232e-15 6.579687898806872e-15 3.57565190688533e-15 0.49375192376372623 -0.8691029483503487
115000000.0 0.45761877286480024 -0.8886486426474002 6.436632810623031e-15 3.4660468483426137e-15 6.607014267374818e-15 3.557795147269331e-15 0.49045170626608947 -0.870968515679529
115500000.0 0.45418402937487334 -0.8904080297431404 6.4630600443043104e-15 3.4484876040919065e-15 6.634141045477071e-15 3.5397710994943387e-15 0.487151766737949 -0.872817471578403
116000000.0 0.45075065180455576 -0.8921500433528069 6.489292228179617e-15 3.430767789170515e-15 6.661067610690256e-15 3.521582230648558e-15 0.48385219819037484 -0.8746498730539484
116500000.0 0.44731873527060084 -0.8938747531521168 6.515328784066181e-15 3.4128897998324607e-15 6.687793369526757e-15 3.5032310004162623e-15 0.4805530927908399 -0.8764657775587131
117000000.0 0.4438883739043275 -0.8955822292136877 6.541169161691508e-15 3.3948560248301796e-15 6.7143177571480495e-15 3.4847198607815683e-15 0.477254541863751 -0.8782652429804115
117500000.0 0.4404596608536973 -0.8972725419952684 6.566812838412377e-15 3.3766688451320686e-15 6.740640237076235e-15 3.466051255738507e-15 0.47395663589109344 -0.8800483276315942
118000000.0 0.43703268828551095 -0.8989457623280789 6.592259318932235e-15 3.3583306336461634e-15 6.766760300903971e-15 3.4472276210073847e-15 0.47065946451318574 -0.8818150902394004
118500000.0 0.43360754738772267 -0.9006019614052584 6.617508135017077e-15 3.3398437549499105e-15 6.792677468002824e-15 3.428251383757409e-15 0.4673631165295447 -0.8835655899353798
119000000.0 0.43018432837186904 -0.90224121077042 6.642558845209967e-15 3.3212105650259986e-15 6.8183912852302335e-15 3.409124962335512e-15 0.4640676798998572 -0.8852998862454001
119500000.0 0.4267631204756095 -0.90386358230632 6.66741103454426e-15 3.3024334110042165e-15 6.843901326635139e-15 3.3898507660013886e-15 0.46077324174506007 -0.8870180390796282
120000000.0 0.42334401196537963 -0.9054691482236339 6.692064314255656e-15 3.2835146309092982e-15 6.869207193162423e-15 3.3704311946686615e-15 0.4574798883485211 -0.8887201087225955
120500000.0 0.41992709013914625 -0.907057981049844 6.7165183214931765e-15 3.2644565534147063e-15 6.894308512356232e-15 3.3508686386521568e-15 0.4541877051573235 -0.8904061558233416
121000000.0 0.416512441329275 -0.9086301536182413 6.740772719029184e-15 3.2452614976023684e-15 6.919204938062311e-15 3.331165478421254e-15 0.45089677678365203 -0.8920762413856383
121500000.0 0.41310015090549473 -0.9101857390570346 6.764827194968505e-15 3.2259317727282194e-15 6.943896150129438e-15 3.311324084359261e-15 0.4476071870062742 -0.8937304267582994
122000000.0 0.4096903032779663 -0.9117248107785755 6.7886814624567955e-15 3.2064696779936426e-15 6.968381854110065e-15 3.2913468165287694e-15 0.4443190187721213 -0.8953687736255679
122500000.0 0.4062829819004461 -0.9132474424686955 6.812335259388224e-15 3.1868775023226415e-15 6.992661780960265e-15 3.2712360244429465e-15 0.4410323541979622 -0.8969913439975913
123000000.0 0.4028782692735501 -0.9147537080761537 6.8357883481125636e-15 3.1671575241447833e-15 7.016735686739071e-15 3.2509940468427326e-15 0.43774727457217033 -0.8985982002009775
123500000.0 0.3994762469481065 -0.9162436818022011 6.859040515141788e-15 3.1473120111838403e-15 7.040603352307309e-15 3.230623211479884e-15 0.4344638603565833 -0.900189404869434
124000000.0 0.39607699552860415 -0.9177174380902563 6.8820915708563e-15 3.1273432202520654e-15 7.064264583026026e-15 3.210125834905797e-15 0.43118219118844897 -0.9017650209344967
124500000.0 0.3926805946767265 -0.9191750516156955 6.904941349210786e-15 3.1072533970500873e-15 7.087719208454601e-15 3.1895042222661196e-15 0.4279023458824631 -0.9033251116163376
125000000.0 0.3892871231149741 -0.9206165972757558 6.9275897074398895e-15 3.0870447759723426e-15 7.110967082048591e-15 3.1687606671010223e-15 0.4246244024328873 -0.9048697404146625
125500000.0 0.38589665863037287 -0.9220421501795533 6.950036525763732e-15 3.0667195799180357e-15 7.134008080857479e-15 3.1478974511511612e-15 0.4213484380157564 -0.9063989710996934
126000000.0 0.3825092780782625 -0.9234517856382153 6.972281707093377e-15 3.046280020107539e-15 7.156842105222318e-15 3.1269168441692093e-15 0.4180745289911642 -0.9079128677032354
126500000.0 0.37912505738616686 -0.9248455791551259 6.994325176736306e-15 3.025728295904199e-15 7.179469078473445e-15 3.1058211037369586e-15 0.4148027509056324 -0.9094114945098343
127000000.0 0.3757440715577422 -0.9262236064162875 7.016166882102023e-15 3.0050665946415065e-15 7.201888946628253e-15 3.0846124750879002e-15 0.41153317849455523 -0.9108949160480154
127500000.0 0.37236639467680027 -0.9275859432807941 7.037806792407809e-15 2.984297091455548e-15 7.224101678089191e-15 3.063293190935252e-15 0.40826588568472355 -0.9123631970816153
128000000.0 0.3689920999114074 -0.9289326657714206 7.05924489838477e-15 2.9634219491227165e-15 7.246107263342015e-15 3.041865471305379e-15 0.4050009455969241 -0.9138164026011988
128500000.0 0.3656212595180545 -0.9302638500653275 7.08048121198421e-15 2.942443317902623e-15 7.26790571465438e-15 3.0203315233765152e-15 0.40173843054860986 -0.9152545978155611
129000000.0 0.36225394484589496 -0.931579572484875 7.101515766084379e-15 2.921363335386117e-15 7.289497065774846e-15 2.998693541322808e-15 0.3984784120566453 -0.916677848143322
129500000.0 0.3588902263410547 -0.9328799094885567 7.122348614197747e-15 2.9001841263484285e-15 7.310881371632395e-15 2.976953706163534e-15 0.3952209608401203 -0.9180862192046059
130000000.0 0.35553017355100325 -0.9341649376620447 7.142979830178816e-15 2.878907802607298e-15 7.332058708036491e-15 2.955114185617491e-15 0.39196614682323216 -0.9194797768128103
130500000.0 0.3521738551289909 -0.935434733709346 7.163409507932518e-15 2.8575364628861132e-15 7.353029171377789e-15 2.9331771339625097e-15 0.38871403913823616 -0.9208585869664633
131000000.0 0.3488213388385485 -0.9366893744440782 7.183637761123337e-15 2.8360721926819263e-15 7.373792878329544e-15 2.9111446918999776e-15 0.38546470612845896 -0.9222227158411681
131500000.0 0.3454726915580441 -0.9379289367808522 7.203664722885155e-15 2.814517064138351e-15 7.394349965549764e-15 2.8890189864243664e-15 0.38221821535137845 -0.9235722297816377
132000000.0 0.3421279792853003 -0.9391534977267724 7.223490545531929e-15 2.7928731359232467e-15 7.414700589384245e-15 2.866802130697685e-15 0.37897463358176237 -0.9249071952938172
132500000.0 0.3387872671422669 -0.9403631343730471 7.243115400269216e-15 2.7711424531111537e-15 7.434844925570462e-15 2.844496223928802e-15 0.3757340268148715 -0.9262276790370952
133000000.0 0.33545061937974524 -0.9415579238867139 7.262539476906669e-15 2.7493270470703877e-15 7.454783168942432e-15 2.8221033512575445e-15 0.37249646026971656 -0.9275337478166035
133500000.0 0.33211809938216835 -0.9427379435024738 7.281762983571482e-15 2.7274289353547807e-15 7.474515533136609e-15 2.799625583643584e-15 0.3692619983923769 -0.9288254685756052
134000000.0 0.3287897696724293 -0.9439032705146413 7.300786146422924e-15 2.705450121599972e-15 7.494042250298826e-15 2.7770649777599728e-15 0.36603070485937156 -0.9301029083879717
134500000.0 0.32546569191675856 -0.9450539822692015 7.319609209367955e-15 2.6833925954242197e-15 7.513363570792401e-15 2.754423575891332e-15 0.3628026425810886 -0.9313661344507475
135000000.0 0.3221459269296478 -0.9461901561559822 7.338232433778004e-15 2.6612583323336273e-15 7.532479762907422e-15 2.7317034058365747e-15 0.35957787370526195 -0.9326152140768055
135500000.0 0.31883053467881844 -0.9473118696009344 7.356656098206962e-15 2.6390492936317715e-15 7.551391112571264e-15 2.708906480816142e-15 0.35635645962050216 -0.9338502146875878
136000000.0 0.3155195742902361 -0.9484192000585236 7.37488049811044e-15 2.6167674263336745e-15 7.57009792306042e-15 2.6860347993836826e-15 0.35313846095987805 -0.9350712038059361
136500000.0 0.3122131040531615 -0.9495122250042309 7.392905945566316e-15 2.5944146630840022e-15 7.588600514713659e-15 2.6630903453421073e-15 0.3499239376045443 -0.936278249049011
137000000.0 0.30891118142524654 -0.9505910219271647 7.410732768996678e-15 2.5719929220794903e-15 7.606899224646591e-15 2.6400750876639484e-15 0.34671294868741664 -0.937471418121297
137500000.0 0.3056138630376637 -0.9516556683227779 7.428361312891129e-15 2.549504106995507e-15 7.624994406467661e-15 2.6169909804159784e-15 0.3435055525968915 -0.9386507788076971
138000000.0 0.302321204700277 -0.9527062416856978 7.445791937531583e-15 2.526950106916713e-15 7.642886429995654e-15 2.5938399626880376e-15 0.3403018069806126 -0.9398163989667149
138500000.0 0.299033261406843 -0.9537428195026603 7.463025018718505e-15 2.5043327962717117e-15 7.6605756809787e-15 2.5706239585259633e-15 0.33710176874927467 -0.9409683465237216
139000000.0 0.295750087340247 -0.9547654792455532 7.480060947498738e-15 2.4816540347716923e-15 7.67806256081488e-15 2.5473448768685886e-15 0.3339054940804736 -0.9421066894643144
139500000.0 0.2924717358777728 -0.9557742983645656 7.496900129894858e-15 2.458915667352963e-15 7.695347486274429e-15 2.5240046114887765e-15 0.3307130384225933 -0.9432314958277574
140000000.0 0.2891982595963987 -0.9567693542814446 7.513542986636187e-15 2.436119524123326e-15 7.712430889223616e-15 2.500605040938356e-15 0.3275244564987307 -0.9443428337005108
140500000.0 0.2859297102781257 -0.9577507243828554 7.52998995289141e-15 2.4132674203122327e-15 7.729313216350298e-15 2.4771480284969675e-15 0.3243398023106601 -0.9454407712098478
141000000.0 0.282666138915331 -0.9587184860138481 7.546241478002918e-15 2.3903611562246595e-15 7.74599492889123e-15 2.453635422124725e-15 0.32115912914283057 -0.946525376517556
141500000.0 0.279407595716146 -0.9596727164714288 7.562298025222853e-15 2.367402517198645e-15 7.762476502361105e-15 2.4300690544186094e-15 0.3179824895663994 -0.9475967178137235
142000000.0 0.2761541301098609 -0.9606134929982341 7.578160071450923e-15 2.344393273566426e-15 7.778758426283445e-15 2.406450742572595e-15 0.3148099354432978 -0.9486548633106121
142500000.0 0.2729057907523506 -0.9615408927763074 7.593828106973986e-15 2.321335180619114e-15 7.794841203923297e-15 2.3827822883413845e-15 0.31164151793032846 -0.949699881236617
143000000.0 0.26966262553152176 -0.9624549929209807 7.60930263520748e-15 2.298229978574858e-15 7.810725352021798e-15 2.3590654780077226e-15 0.3084772874832945 -0.9507318398303061
143500000.0 0.26642468157278004 -0.9633558704748563 7.624584172438681e-15 2.2750793925504153e-15 7.826411400532649e-15 2.3353020823532217e-15 0.3053172938611564 -0.951750807334549
144000000.0 0.26319200524451625 -0.9642436024018871 7.639673247571847e-15 2.251885132536106e-15 7.841899892360516e-15 2.3114938566326515e-15 0.3021615861302181 -0.952756851990727
144500000.0 0.259964642163607 -0.965118265581564 7.65457040187527e-15 2.2286488933740325e-15 7.857191383101381e-15 2.2876425405515796e-15 0.29901021266833844 -0.9537500420330277
145000000.0 0.2567426372009368 -0.9659799368031952 7.669276188730246e-15 2.2053723547395916e-15 7.872286440784873e-15 2.2637498582474057e-15 0.29586322116917135 -0.9547304456828217
145500000.0 0.2535260344869286 -0.9668286927602906 7.68379117338203e-15 2.1820571811261395e-15 7.887185645618615e-15 2.239817518273596e-15 0.29272065864642693 -0.9556981311431235
146000000.0 0.2503148774170905 -0.9676646100450415 7.698115932692742e-15 2.1587050218327775e-15 7.901889589734605e-15 2.215847213587173e-15 0.28958257143815724 -0.9566531665931345
146500000.0 0.2471092086575749 -0.9684877651428977 7.712251054896278e-15 2.135317510955233e-15 7.91639887693765e-15 2.191840621539343e-15 0.2864490052110655 -0.9575956201828663
147000000.0 0.24390907015074687 -0.9692982344272432 7.726197139355282e-15 2.1118962673797434e-15 7.930714122455861e-15 2.1677994038692065e-15 0.28332000496483467 -0.9585255600278472
147500000.0 0.24071450312076315 -0.9700960941541668 7.739954796320108e-15 2.0884428947798726e-15 7.944835952693289e-15 2.1437252067005166e-15 0.2801956150364776 -0.9594430542039095
148000000.0 0.23752554807915865 -0.9708814204573275 7.753524646689887e-15 2.0649589816162523e-15 7.958765004984618e-15 2.1196196605413877e-15 0.27707587910470355 -0.9603481707420563
148500000.0 0.23434224483044172 -0.9716542893429153 7.766907321775656e-15 2.0414461011391558e-15 7.972501927352067e-15 2.0954843802869563e-15 0.2739608401943059 -0.9612409776234087
149000000.0 0.23116463247769217 -0.9724147766847071 7.7801034630656e-15 2.0179058113938285e-15 7.986047378264397e-15 2.0713209652248413e-15 0.2708505406805631 -0.962121542774234
149500000.0 0.22799274942816883 -0.9731629582192105 7.79311372199239e-15 1.9943396552286005e-15 7.99940202639807e-15 2.0471309990434758e-15 0.2677450222936583 -0.9629899340610508
150000000.0 0.22482663339891676 -0.9738989095409071 7.805938759702682e-15 1.9707491603056182e-15 8.012566550400693e-15 2.0229160498431205e-15 0.264644326123112 -0.9638462192858143
150500000.0 0.22166632142237944 -0.9746227060975813 7.818579246828726e-15 1.9471358391142164e-15 8.025541638656544e-15 1.9986776701495937e-15 0.2615484926222279 -0.9646904661811783
151000000.0 0.2185118498520123 -0.9753344231857429 7.831035863262152e-15 1.923501188986862e-15 8.038327989054387e-15 1.9744173969306313e-15 0.25845756161255395 -0.9655227424058364
151500000.0 0.2153632543678955 -0.9760341359461373 7.843309297929936e-15 1.8998466921175824e-15 8.050926308757492e-15 1.950136751614813e-15 0.2553715722883518 -0.9663431155399388
152000000.0 0.21222056998234973 -0.9767219193593473 7.855400248572513e-15 1.8761738155828708e-15 8.063337313975903e-15 1.9258372401130065e-15 0.2522905632210796 -0.9671516530805857
152500000.0 0.20908383104554595 -0.9773978482414803 7.867309421524129e-15 1.8524840113649745e-15 8.075561729740944e-15 1.9015203528422825e-15 0.24921457236388345 -0.9679484224373991
153000000.0 0.2059530712511166 -0.9780619972399464 7.879037531495344e-15 1.8287787163775404e-15 8.087600289681985e-15 1.877187564752239e-15 0.24614363705609743 -0.9687334909281644
153500000.0 0.20282832364176184 -0.9787144408293175 7.890585301357781e-15 1.805059352493555e-15 8.09945373580549e-15 1.8528403353536786e-15 0.2430777940277532 -0.9695069257745542
154000000.0 0.19970962061485228 -0.9793552533072789 7.901953461931086e-15 1.781327326575531e-15 8.111122818276321e-15 1.82848010874959e-15 0.24001707940409406 -0.9702687940979194
154500000.0 0.19659699392802477 -0.9799845087906613 7.913142751772091e-15 1.7575840305078692e-15 8.122608295201351e-15 1.804108313668372e-15 0.23696152871009843 -0.9710191629151602
155000000.0 0.19349047470477537 -0.9806022812115569 7.924153916966228e-15 1.7338308412313853e-15 8.133910932415331e-15 1.779726363499274e-15 0.23391117687500443 -0.971758099134664
155500000.0 0.1903900934400418 -0.9812086443135215 7.93498771092118e-15 1.7100691207799041e-15 8.145031503269093e-15 1.7553356563299604e-15 0.23086605823684467 -0.9724856695523227
156000000.0 0.18729588000578123 -0.9818036716478565 7.945644894162758e-15 1.6863002163189168e-15 8.155970788420008e-15 1.730937574986183e-15 0.22782620654697902 -0.9732019408476154
156500000.0 0.18420786365653685 -0.982387436569974 7.956126234133029e-15 1.6625254601862042e-15 8.166729575624782e-15 1.7065334870734857e-15 0.22479165497463385 -0.9739069795797674
157000000.0 0.1811260730349983 -0.982960012235841 7.966432504990675e-15 1.638746169934423e-15 8.177308659534548e-15 1.6821247450209235e-15 0.22176243611144128 -0.9746008521839775
157500000.0 0.17805053617754657 -0.9835214715985054 7.976564487413645e-15 1.6149636483755645e-15 8.187708841492241e-15 1.6577126861266815e-15 0.21873858197598167 -0.9752836249677163
158000000.0 0.1749812805197946 -0.9840718874046998 7.986522968403996e-15 1.5911791836272827e-15 8.197930929332337e-15 1.6332986326056517e-15 0.21572012401832472 -0.9759553641070945
158500000.0 0.17191833290211103 -0.9846113321915237 7.996308741095031e-15 1.567394049160997e-15 8.207975737182841e-15 1.6088838916387888e-15 0.21270709312457073 -0.9766161356432996
159000000.0 0.16886171957513313 -0.9851398782832039 8.005922604560664e-15 1.543609503851761e-15 8.217844085269624e-15 1.584469755424308e-15 0.20969951962139224 -0.977266005479101
159500000.0 0.16581146620526627 -0.9856575977879295 8.015365363627048e-15 1.5198267920298196e-15 8.227536799723058e-15 1.5600575012306088e-15 0.20669743328057236 -0.9779050393754231
160000000.0 0.16276759788017164 -0.9861645625947648 8.024637828686444e-15 1.4960471435338464e-15 8.23705471238697e-15 1.53564839145092e-15 0.20370086332354018 -0.978533302947987
160500000.0 0.1597301391142349 -0.9866608443706361 8.033740815513324e-15 1.4722717737657806e-15 8.246398660629853e-15 1.5112436736595806e-15 0.2007098384259059 -0.9791508616640147
161000000.0 0.15669911385402355 -0.9871465145573914 8.04267514508277e-15 1.4485018837472175e-15 8.255569487158489e-15 1.4868445806699374e-15 0.19772438672198878 -0.9797577808390063
161500000.0 0.15367454548372772 -0.9876216443689356 8.051441643391034e-15 1.4247386601773667e-15 8.264568039833737e-15 1.4624523305938264e-15 0.1947445358093428 -0.9803541256335743
162000000.0 0.15065645683058085 -0.9880863047884365 8.060041141278407e-15 1.400983275492431e-15 8.27339517148872e-15 1.438068126902525e-15 0.1917703127532756 -0.9809399610503491
162500000.0 0.1476448701702693 -0.9885405665656006 8.068474474254285e-15 1.3772368879264868e-15 8.282051739749251e-15 1.4136931584892467e-15 0.188801744091364 -0.9815153519309456
163000000.0 0.1446398072323186 -0.9889845002140245 8.076742482324472e-15 1.3535006415737019e-15 8.290538606856586e-15 1.3893285997330038e-15 0.1858388558379598 -0.9820803629529942
163500000.0 0.14164128920546468 -0.9894181760086103 8.084846009820695e-15 1.3297756664519422e-15 8.29885663949242e-15 1.3649756105639061e-15 0.18288167348869186 -0.9826350586272343
164000000.0 0.1386493367430038 -0.9898416639830544 8.092785905232374e-15 1.3060630785676757e-15 8.307006708606172e-15 1.3406353365297615e-15 0.17993022202495715 -0.9831795032946705
164500000.0 0.13566396996812682 -0.9902550339274018 8.100563021040545e-15 1.2823639799821602e-15 8.314989689244562e-15 1.3163089088640424e-15 0.17698452591840874 -0.9837137611237897
165000000.0 0.1326852084792276 -0.990658355385669 8.10817821355404e-15 1.2586794588788291e-15 8.322806460383412e-15 1.2919974445550331e-15 0.17404460913542832 -0.9842378961078404
165500000.0 0.12971307135519686 -0.9910516976535321 8.11563234274782e-15 1.2350105896319033e-15 8.330457904761735e-15 1.2677020464162778e-15 0.17111049514159363 -0.9847519720621717
166000000.0 0.12674757716069054 -0.991435129776083 8.122926272103541e-15 1.2113584328761418e-15 8.337944908718049e-15 1.2434238031581576e-15 0.16818220690613722 -0.9852560526216317
166500000.0 0.12378874395137994 -0.9918087205456473 8.130060868452265e-15 1.1877240355776958e-15 8.345268362028944e-15 1.2191637894606345e-15 0.16525976690639024 -0.9857502012380251
167000000.0 0.12083658927917659 -0.9921725384996684 8.137037001819352e-15 1.1641084311060447e-15 8.352429157749866e-15 1.1949230660470872e-15 0.16234319713221979 -0.9862344811776312
167500000.0 0.11789113019743755 -0.9925266519186535 8.143855545271529e-15 1.1405126393069707e-15 8.359428192058129e-15 1.1707026797592134e-15 0.1594325190904508 -0.9867089555187765
168000000.0 0.11495238326614636 -0.9928711288241837 8.150517374766086e-15 1.1169376665765306e-15 8.366266364098128e-15 1.146503663632968e-15 0.15652775380928013 -0.9871736871494662
168500000.0 0.11202036455707064 -0.9932060369769831 8.15702336900225e-15 1.0933845059359927e-15 8.372944575828778e-15 1.1223270369754737e-15 0.153628921842675 -0.9876287387650746
169000000.0 0.1090950896588952 -0.9935314438750503 8.163374409274653e-15 1.0698541371076836e-15 8.3794637318731e-15 1.0981738054428892e-15 0.15073604327475948 -0.9880741728660879
169500000.0 0.10617657368233498 -0.9938474167518511 8.16957137932896e-15 1.0463475265917742e-15 8.385824739370025e-15 1.0740449611192052e-15 0.14784913772418865 -0.9885100517559032
170000000.0 0.10326483126521618 -0.9941540225745665 8.17561516521958e-15 1.0228656277438669e-15 8.392028507828334e-15 1.0499414825959113e-15 0.14496822434850784 -0.9889364375386833
170500000.0 0.10035987657754025 -0.9944513280424027 8.181506655169486e-15 9.99409380853438e-16 8.398075948982794e-15 1.0258643350524992e-15 0.1420933218484974 -0.9893533921172667
171000000.0 0.09746172332651622 -0.9947393995849568 8.187246739432127e-15 9.759797132230604e-16 8.403967976652388e-15 1.0018144703377885e-15 0.13922444847250406 -0.9897609771911277
171500000.0 0.09457038476157272 -0.9950183033606403 8.19283631015542e-15 9.525775392484004e-16 8.40970550660071e-15 9.777928270520354e-16 0.13636162202075672 -0.9901592542543922
172000000.0 0.09168587367933803 -0.9952881052551574 8.19827626124779e-15 9.292037604988986e-16 8.415289456398466e-15 9.538003306297516e-16 0.13350485984966518 -0.9905482845939046
172500000.0 0.08880820242860141 -0.995548870880039 8.203567488246287e-15 9.058592657991954e-16 8.420720745288099e-15 9.298378934232918e-16 0.13065417887610684 -0.9909281292873479
173000000.0 0.0859373829152401 -0.9958006655712317 8.208710888186703e-15 8.825449313111618e-16 8.42600029405047e-15 9.059064147870445e-16 0.12780959558169197 -0.9912988492014115
173500000.0 0.08307342660712327 -0.9960435543877403 8.213707359475766e-15 8.592616206166043e-16 8.431129024873656e-15 8.820067811623391e-16 0.12497112601701753 -0.9916605049900136
174000000.0 0.0802163445389906 -0.9962776021103213 8.218557801765295e-15 8.360101848005493e-16 8.436107861223788e-15 8.581398661629153e-16 0.12213878580590005 -0.9920131570925701
174500000.0 0.07736614731729921 -0.9965028732402318 8.223263115828385e-15 8.127914625350944e-16 8.440937727717961e-15 8.343065306610242e-16 0.11931259014959382 -0.9923568657323144
175000000.0 0.0745228451250447 -0.9967194319980275 8.227824203437587e-15 7.896062801638052e-16 8.445619549999166e-15 8.10507622874023e-16 0.1164925538309906 -0.9926916909146661
175500000.0 0.07168644772655468 -0.996927342322411 8.232241967244992e-15 7.664554517866163e-16 8.450154254613238e-15 7.867439784515564e-16 0.1136786912187993 -0.9930176924256462
176000000.0 0.06885696447225406 -0.9971266678691316 8.236517310664373e-15 7.43339779345235e-16 8.454542768887841e-15 7.630164205631959e-16 0.11087101627171253 -0.9933349298303404
176500000.0 0.06603440430340053 -0.997317472009934 8.240651137755191e-15 7.202600527089693e-16 8.458786020813417e-15 7.393257599865574e-16 0.10806954254254841 -0.9936434624714102
177000000.0 0.06321877575679181 -0.9974998178315528 8.244644353108544e-15 6.972170497609997e-16 8.462884938926123e-15 7.1567279519585e-16 0.1052742831823781 -0.9939433494676491
177500000.0 0.060410086969446095 -0.9976737681347593 8.248497861735056e-15 6.742115364850663e-16 8.466840452192746e-15 6.920583124508482e-16 0.10248525094463157 -0.9942346497125832
178000000.0 0.0576083456832495 -0.9978393854334503 8.252212568954621e-15 6.512442670524933e-16 8.47065348989754e-15 6.684830858862376e-16 0.09970245818918608 -0.9945174218731215
178500000.0 0.05481355924957758 -0.9979967319537874 8.255789380288083e-15 6.283159839096018e-16 8.474324981531002e-15 6.44947877601326e-16 0.09692591688643232 -0.9947917243882439
179000000.0 0.05202573463388595 -0.9981458696333774 8.259229201350714e-15 6.054274178654065e-16 8.477855856680589e-15 6.214534377500796e-16 0.09415563862132241 -0.9950576154677392
179500000.0 0.04924487842027147 -0.9982868601205028 8.262532937747617e-15 5.82579288179663e-16 8.481247044923287e-15 5.980005046314766e-16 0.09139163459739859 -0.9953151530909818
180000000.0 0.04647099681600227 -0.9984197647733913 8.265701494970896e-15 5.597723026511213e-16 8.484499475720125e-15 5.745898047801214e-16 0.08863391564079796 -0.9955643950057544
180500000.0 0.04370409565602071 -0.9985446446595315 8.268735778298698e-15 5.370071577060933e-16 8.487614078312487e-15 5.512220530571354e-16 0.08588249220424046 -0.9958053987271114
181000000.0 0.04094418040741426 -0.9986615605550313 8.271636692696039e-15 5.1428453848720215e-16 8.490591781620343e-15 5.278979527412757e-16 0.0831373743709924 -0.9960382215362829
181500000.0 0.03819125617385581 -0.9987705729440165 8.274405142717397e-15 4.916051189423759e-16 8.49343351414227e-15 5.046181956202612e-16 0.08039857185881372 -0.996262920479621
182000000.0 0.035445327700014614 -0.9988717420180733 8.277042032411122e-15 4.689695619139746e-16 8.496140203857299e-15 4.813834620822857e-16 0.07766609402387778 -0.9964795523675868
182500000.0 0.03270639937593614 -0.9989651276757294 8.279548265225563e-15 4.463785192281122e-16 8.498712778128591e-15 4.581944212076796e-16 0.07493994986467334 -0.996688173773777
183000000.0 0.029974475241392972 -0.9990507895219748 8.281924743916942e-15 4.238326317841251e-16 8.50115216360886e-15 4.350517308607634e-16 0.07222014802588653 -0.9968888410339867
183500000.0 0.02724955899020181 -0.999128786867825 8.284172370458964e-15 4.013325296441075e-16 8.503459286147584e-15 4.119560377817471e-16 0.069506696802255 -0.9970816102453169
184000000.0 0.024531653974512672 -0.9991991787299194 8.286292045954136e-15 3.788788321226028e-16 8.505635070699978e-15 3.8890797767878903e-16 0.06679960414240659 -0.9972665372653152
184500000.0 0.02182076320906521 -0.9992620238301583 8.288284670546732e-15 3.5647214787632196e-16 8.507680441237675e-15 3.6590817532010856e-16 0.06409887765267107 -0.9974436777111564
185000000.0 0.019116889375417126 -0.9993173805953806 8.290151143337505e-15 3.3411307499396966e-16 8.509596320661146e-15 3.4295724462616366e-16 0.06140452460087193 -0.997613086958858
185500000.0 0.01642003482613683 -0.9993653071570734 8.291892362299989e-15 3.118022010860496e-16 8.511383630713812e-15 3.2005578876185627e-16 0.058716551920095846 -0.997774820142537
186000000.0 0.013730201588969258 -0.9994058613511205 8.293509224198462e-15 2.895401033747289e-16 8.513043291897835e-15 2.9720440022876505e-16 0.056034966212435255 -0.9979289321536967
186500000.0 0.011047391370968981 -0.999439100717587 8.295002624507564e-15 2.6732734878369903e-16 8.51457622339159e-15 2.7440366095738414e-16 0.05335977375271533 -0.9980754776405534
187000000.0 0.008371605562602497 -0.9994650825005362 8.296373457333465e-15 2.451644940280054e-16 8.515983342968765e-15 2.5165414239933346e-16 0.05069098049219185 -0.9982145110073949
187500000.0 0.005702845241817607 -0.9994838636478829 8.297622615336671e-15 2.2305208570383877e-16 8.517265566919114e-15 2.289564056195295e-16 0.04802859206222854 -0.9983460864139782
188000000.0 0.0030411111780851204 -0.9994955008112799 8.298750989656378e-15 2.0099066037829893e-16 8.51842380997081e-15 2.0631100138831087e-16 0.0453726137779508 -0.9984702577749535
188500000.0 0.000386403836405822 -0.9995000503460363 8.299759469836374e-15 1.7898074467906445e-16 8.519458985214395e-15 1.8371847027351044e-16 0.04272305064187742 -0.9985870787593298
189000000.0 -0.002261276618711495 -0.9994975683110703 8.30064894375252e-15 1.570228553839825e-16 8.520372004028323e-15 1.6117934273238174e-16 0.04007990734752585 -0.9986966027899684
189500000.0 -0.004901930319304788 -0.9994881104688917 8.301420297541714e-15 1.3511749951056338e-16 8.521163776006052e-15 1.386941392034919e-16 0.03744318828299695 -0.9987988830431085
190000000.0 -0.007535557690043285 -0.9994717322856183 8.30207441553236e-15 1.1326517440535625e-16 8.521835208884685e-15 1.16263370198441e-16 0.03481289753453495 -0.9988939724479281
190500000.0 -0.010162159444344393 -0.9994484889310187 8.302612180176362e-15 9.146636783319318e-17 8.52238720847515e-15 9.388753639348385e-17 0.03218903889006472 -0.9989819236861335
191000000.0 -0.012781736580522852 -0.9994184352785911 8.303034471982558e-15 6.972155806626523e-17 8.522820678593858e-15 7.15671287209612e-17 0.02957161584270279 -0.9990627891915802
191500000.0 -0.015394290377966446 -0.9993816259056664 8.303342169451612e-15 4.8031213973077635e-17 8.52313652099592e-15 4.930262846059997e-17 0.026960631594246068 -0.9991366211499254
192000000.0 -0.017999822393349723 -0.9993381150935424 8.30353614901236e-15 2.6395795107198195e-17 8.523335635309747e-15 2.709450733062373e-17 0.02435608905863987 -0.9992034714983075
192500000.0 -0.020598334456873674 -0.9992879568276478 8.30361728495957e-15 4.8157517958169785e-18 8.523418918973205e-15 4.94322757864822e-18 0.021757990865415848 -0.9992633919250598
193000000.0 -0.02318982866853882 -0.9992312047977314 8.303586449393086e-15 -1.6708474771878878e-17 8.52338726717114e-15 -1.7150757927605284e-17 0.019166339363109536 -0.9993164338694468
193500000.0 -0.02577430739444873 -0.9991679123980807 8.303444512158413e-15 -3.817645245656005e-17 8.523241572774371e-15 -3.9187005609822783e-17 0.01658113662265522 -0.999362648521436
194000000.0 -0.02835177326314436 -0.9990981327277654 8.303192340788602e-15 -5.958775808083633e-17 8.522982726280065e-15 -6.116508108885766e-17 0.014002384440752759 -0.9994020868214916
194500000.0 -0.03092222916197072 -0.9990219185909105 8.302830800447559e-15 -8.094197734156705e-17 8.522611615753523e-15 -8.3084559094727e-17 0.011430084343214297 -0.9994347994603983
195000000.0 -0.03348567823347406 -0.9989393224969909 8.302360753874635e-15 -1.02238704722458e-16 8.522129126771317e-15 -1.0494502337687659e-16 0.008864237588282744 -0.9994608368791141
195500000.0 -0.03604212387182699 -0.9988503966611549 8.3017830613306e-15 -1.2347754340686297e-16 8.521536142365821e-15 -1.267460666146906e-16 0.006304845169930991 -0.999480249268646
196000000.0 -0.03859156971929038 -0.9987551930045703 8.301098580544844e-15 -1.4465810519092166e-16 8.52083354297103e-15 -1.4848729032832866e-16 0.0037519078211325995 -0.9994930865699532
196500000.0 -0.041134019662700104 -0.9986537631547953 8.300308166663938e-15 -1.6578001039695328e-16 8.520022206369752e-15 -1.7016830478981375e-16 0.0012054260171092807 -0.9994993984738778
197000000.0 -0.0436694778299891 -0.9985461584461731 8.299412672201443e-15 -1.8684288778714635e-16 8.519103007642068e-15 -1.9178872893445482e-16 -0.0013346000214428271 -0.9994992344210982
197500000.0 -0.04619794858673606 -0.998432429920251 8.298412946988945e-15 -2.078463744775715e-16 8.518076819115124e-15 -2.1334819027256467e-16 -0.00386817032515594 -0.9994926436021097
198000000.0 -0.04871943653274827 -0.9983126283262198 8.29730983812838e-15 -2.2879011585248017e-16 8.516944510314133e-15 -2.34846324801516e-16 -0.006395285172813586 -0.9994796749572256
198500000.0 -0.05123394649867316 -0.9981868041213776 8.296104189945568e-15 -2.496737654789884e-16 8.515706947914715e-15 -2.562827769181365e-16 -0.00891594508820047 -0.9994603771766081
199000000.0 -0.05374148354263888 -0.9980550074716146 8.294796843944918e-15 -2.704969850220197e-16 8.5143649956964e-15 -2.776571993314264e-16 -0.011430150836974424 -0.9994347987003173
199500000.0 -0.05624205294692928 -0.9979172882519186 8.293388638765386e-15 -2.912594441596655e-16 8.51291951449741e-15 -2.989692529756567e-16 -0.013937903423564395 -0.9994029877183863
200000000.0 -0.05873566021468465 -0.9977736960469034 8.291880410137553e-15 -3.1196082049885966e-16 8.511371362170607e-15 -3.2021860692383084e-16 -0.016439204088092553 -0.999364992170918
