! Created with skrf 2.0.1 (http://scikit-rf.org).
# Hz S RI R 50.0 
!freq ReS11 ImS11 ReS21 ImS21 ReS12 ImS12 ReS22 ImS22
500000.0 0.9999854089672261 -0.0053029485144260174 2.283448623158999e-19 4.3140974228857324e-17 2.3438928514190904e-19 4.4282941193738855e-17 0.9999865737426419 -0.0050828886204725985
1000000.0 0.9999426976975634 -0.010605667719449603 9.047137605404323e-19 8.627662307855888e-17 9.286620659665027e-19 8.856041604240311e-17 0.9999473125959928 -0.010165575096028345
1500000.0 0.999871869816457 -0.015907933962325774 2.028996345685518e-18 1.2940171198751124e-16 2.0827050724830752e-18 1.3282705142247477e-16 0.9998822196226131 -0.015247862475152104
2000000.0 0.9997729313207241 -0.021209523654148778 3.6010097873743845e-18 1.72511008777423e-16 3.6963306346872366e-18 1.7707747665682538e-16 0.9997912998867127 -0.020329553858010895
2500000.0 0.9996458905772889 -0.02651021330127363 5.620498829462119e-18 2.1559928482926336e-16 5.769276739653763e-18 2.2130632472180272e-16 0.9996745604531663 -0.02541045242187687
3000000.0 0.9994907583214155 -0.031809779536709396 8.087135867629519e-18 2.5866131625780603e-16 8.30120711118442e-18 2.655082334528656e-16 0.9995320103861461 -0.03049036144652938
3500000.0 0.9993075476544465 -0.037107999151475266 1.1000521048911176e-17 3.016918850842949e-16 1.1291711311970589e-17 3.096778467482909e-16 0.9993636607473639 -0.035569084339629194
4000000.0 0.9990962740410372 -0.042404649125909716 1.4360182393107565e-17 3.4468578040676464e-16 1.4740304868219236e-17 3.538098157704732e-16 0.9991695245939294 -0.040646424662058214
4500000.0 0.9988569553058999 -0.04769950666092421 1.8165575936020035e-17 3.876377995675561e-16 1.8646429416679386e-17 3.9789880014434432e-16 0.9989496169758213 -0.04572218615321732
5000000.0 0.9985896116300476 -0.052992349209191415 2.2416085894436504e-17 4.305427493175618e-16 2.300945287399512e-17 4.4193946915243846e-16 0.9987039549329739 -0.050796172756276264
5500000.0 0.9982942655465468 -0.058282954506259664 2.7111024852784983e-17 4.733954469767469e-16 2.782866962829987e-17 4.859265029261313e-16 0.9984325574919821 -0.055868188643368
6000000.0 0.9979709419357776 -0.06357110060158386 3.224963397136101e-17 5.16190721590486e-16 3.310330075295586e-17 5.29854593632587e-16 0.9981354456624231 -0.06093803824072138
6500000.0 0.997619668020199 -0.06885656588946391 3.783108321602429e-17 5.589234150812594e-16 3.883249424233083e-17 5.737184466569399e-16 0.9978126424327954 -0.06600552625372495
7000000.0 0.9972404733586337 -0.07413912913988227 4.385447160924958e-17 6.015883833952653e-16 4.501532526949442e-17 6.175127817792576e-16 0.9974641727660815 -0.0710704576919153
7500000.0 0.9968333898400599 -0.0794185695292303 5.03188275024055e-17 6.441804976434904e-16 5.165079646570447e-17 6.61232334345818e-16 0.9970900635949292 -0.07613263789388341
8000000.0 0.9963984516769222 -0.08469466667091627 5.722310886912527e-17 6.866946452368006e-16 5.873783822154329e-17 7.048718564342452e-16 0.9966903438164604 -0.08119187255209197
8500000.0 0.9959356953979618 -0.08996720064584429 6.456620361962247e-17 7.291257310146096e-16 6.627530900955365e-17 7.484261180120551e-16 0.9962650442867035 -0.08624796773759769
9000000.0 0.995445159840565 -0.09523595203275688 7.234692993579437e-17 7.714686783666843e-16 7.426199572821245e-17 7.918899080881553e-16 0.9958141978146513 -0.09130072992467111
9500000.0 0.9949268861426426 -0.10050070193843182 8.056403662694678e-17 8.137184303476639e-16 8.269661406707184e-17 8.352580358568668e-16 0.9953378391559551 -0.09634996601530861
10000000.0 0.9943809177340305 -0.10576123202772428 8.921620350596129e-17 8.558699507838514e-16 9.157780889288379e-17 8.785253318340123e-16 0.9948360050062438 -0.10139548336362872
10500000.0 0.9938073003274249 -0.11101732455344643 9.830204178571954e-17 8.979182253718652e-16 1.0090415465651798e-16 9.216866489846496e-16 0.9943087339940823 -0.10643708980014766
11000000.0 0.9932060819088517 -0.1162687623860754 1.0782009449558644e-16 9.398582627687266e-16 1.1067415582046961e-16 9.647368638420166e-16 0.993756066673565 -0.11147459365592689
11500000.0 0.9925773127276758 -0.12151532904328176 1.177688369177461e-16 9.81685095672973e-16 1.2088624730674529e-16 1.0076708776172576e-15 0.9931780455165473 -0.11650780378658637
12000000.0 0.9919210452861471 -0.12675680871926923 1.2814667704317462e-16 1.0233937818963831e-15 1.3153879496490573e-16 1.0504836172995226e-15 0.9925747149045244 -0.12153652959617832
12500000.0 0.9912373343285004 -0.1319929863139186 1.3895195604702354e-16 1.0649794054259235e-15 1.4263009606003297e-16 1.0931700367460211e-15 0.99194612112015 -0.1265605810609134
13000000.0 0.990526236829599 -0.13722364746172683 1.5018294878318113e-16 1.1064370774755067e-15 1.5415837978038302e-16 1.1357251177616233e-15 0.9912923123384072 -0.13157976875273553
13500000.0 0.9897878119831397 -0.14244857856053403 1.6183786429776603e-16 1.147761937527184e-15 1.6612180776447163e-16 1.1781438711676095e-15 0.9906133386174266 -0.136593903862737
14000000.0 0.9890221211894094 -0.14766756680002913 1.7391484636130232e-16 1.1889491543613799e-15 1.7851847464733682e-16 1.2204213378591812e-15 0.9899092518889661 -0.14160279822440988
14500000.0 0.9882292280426132 -0.1528804001900283 1.8641197401931482e-16 1.229993927075795e-15 1.9134640862570846e-16 1.2625525898513308e-15 0.9891801059485388 -0.1466062643367263
15000000.0 0.9874091983177659 -0.15808686758851656 1.9932726216107528e-16 1.2708914860926121e-15 2.0460357204180963e-16 1.3045327313127107e-15 0.9884259564452137 -0.15160411538704294
15500000.0 0.9865620999571625 -0.1632867587294466 2.1265866210622204e-16 1.3116370941536338e-15 2.1828786198550433e-16 1.3463568995871122e-15 0.98764686087107 -0.1565961652738229
16000000.0 0.9856880030564213 -0.16847986425028533 2.2640406220896727e-16 1.3522260473030035e-15 2.3239711091449876e-16 1.388020266202201e-15 0.9868428785503318 -0.1615822286291708
16500000.0 0.9847869798501188 -0.17366597571930378 2.4056128847959946e-16 1.3926536758571573e-15 2.4692908729229477e-16 1.4295180378651408e-15 0.9860140706281642 -0.16656212084117342
17000000.0 0.9838591046970083 -0.17884488566259987 2.551281052229789e-16 1.4329153453616691e-15 2.618814962435871e-16 1.470845457444772e-15 0.9851605000591545 -0.1715356580760426
17500000.0 0.9829044540648375 -0.1840163875908491 2.701022156937197e-16 1.4730064575346575e-15 2.7725198022678884e-16 1.5119978049399871e-15 0.9842822315954705 -0.1765026573000539
18000000.0 0.9819231065147649 -0.1891802760257756 2.854812627677403e-16 1.5129224511964218e-15 2.930381197233569e-16 1.5529703984339742e-15 0.983379331774702 -0.1814629363012746
18500000.0 0.9809151426853854 -0.19433634652633658 3.0126282962986293e-16 1.5526588031850021e-15 3.092374339435945e-16 1.5937585950340166e-15 0.9824518689073936 -0.18641631371107897
19000000.0 0.9798806452763686 -0.19948439571461374 3.1744444047713125e-16 1.5922110292573487e-15 3.2584738154858473e-16 1.6343577917965138e-15 0.9814999130642706 -0.191362609025442
19500000.0 0.9788196990317131 -0.20462422130140462 3.3402356123751145e-16 1.6315746849758005e-15 3.4286536138791614e-16 1.6747634266369244e-15 0.9805235360631611 -0.1963016426260095
20000000.0 0.9777323907226313 -0.20975562211150814 3.5099760030363426e-16 1.6707453665795855e-15 3.6028871325284814e-16 1.7149709792243393e-15 0.9795228114556208 -0.20123323580093802
20500000.0 0.9766188091300609 -0.21487839810869755 3.6836390928123074e-16 1.7097187118410565e-15 3.7811471864455743e-16 1.7549759718603789e-15 0.9784978145132651 -0.2061572107655001
21000000.0 0.9754790450268189 -0.21999235042037502 3.8611978375190903e-16 1.7484904009063943e-15 3.963406015571066e-16 1.7947739703421517e-15 0.977448622213811 -0.2110733906824502
21500000.0 0.9743131911593971 -0.22509728136190177 4.042624640499117e-16 1.787056157120507e-15 4.1496352927476215e-16 1.8343605848089903e-15 0.9763753132268369 -0.21598159968214753
22000000.0 0.9731213422294114 -0.23019299446059757 4.227891360524907e-16 1.8254117478358764e-15 4.339806131832919e-16 1.873731470572708e-15 0.9752779678992631 -0.22088166288242952
22500000.0 0.9719035948747067 -0.2352792944794044 4.416969319835299e-16 1.863552985205102e-15 4.533889095948586e-16 1.91288232893112e-15 0.9741566682405564 -0.2257734064082329
23000000.0 0.9706600476501309 -0.24035598744020964 4.609829312300423e-16 1.9014757269569078e-15 4.731854205861318e-16 1.9518089079645904e-15 0.973011497907667 -0.23065665741095762
23500000.0 0.969390801007977 -0.24542288064682036 4.806441611711629e-16 1.939175877155381e-15 4.93367094849223e-16 1.9905070033153763e-15 0.9718425421897026 -0.23553124408757
24000000.0 0.9680959572781086 -0.25047978270758825 5.006775980192546e-16 1.9766493869422323e-15 5.139308285550584e-16 2.0289724589495267e-15 0.9706498879923408 -0.24039699569943954
24500000.0 0.9667756206477685 -0.25552650355767526 5.21080167672741e-16 2.0138922552618624e-15 5.348734662287838e-16 2.0672011679011464e-15 0.9694336238219895 -0.2452537425909075
25000000.0 0.965429897141081 -0.260562854480959 5.41848746580275e-16 2.050900529569034e-15 5.561918016368117e-16 2.1051890729988026e-15 0.9681938397696992 -0.2501013162075818
25500000.0 0.9640588945982598 -0.26558864813157074 5.629801626158521e-16 2.0876703065189755e-15 5.778825786850952e-16 2.1429321675738893e-15 0.9669306274948304 -0.25493954911435457
26000000.0 0.9626627226545181 -0.27060369855506256 5.844711959644671e-16 2.1241977326397176e-15 5.999424923282325e-16 2.180426496150769e-15 0.9656440802084869 -0.2597682750131411
26500000.0 0.9612414927187005 -0.27560782120919963 6.063185800179192e-16 2.16047900498651e-15 6.223681894889817e-16 2.2176681551185058e-15 0.9643342926567113 -0.26458732876033186
27000000.0 0.9597953179516348 -0.2806008329843722 6.285190022803608e-16 2.1965103717781483e-15 6.451562699877821e-16 2.2546532933840404e-15 0.9630013611034604 -0.2693965463839606
27500000.0 0.9583243132442151 -0.2855825522236236 6.51069105283183e-16 2.232288133015065e-15 6.683032874818555e-16 2.2913781130066405e-15 0.9616453833133545 -0.2741957651005787
28000000.0 0.9568285951952274 -0.290552798742293 6.739654875088374e-16 2.2678086410790476e-15 6.91805750413483e-16 2.327838869813493e-15 0.9602664585342117 -0.27898482333183766
28500000.0 0.955308282088917 -0.29551139384726355 6.97204704323179e-16 2.3030683013144534e-15 7.156601229670276e-16 2.364031873996306e-15 0.9588646874793769 -0.2837635607207755
29000000.0 0.9537634938723147 -0.3004581603558197 7.207832689159228e-16 2.3380635725907964e-15 7.398628260342854e-16 2.399953490688788e-15 0.9574401723098394 -0.2885318181478007
29500000.0 0.9521943521323226 -0.3053929226141034 7.446976532488035e-16 2.3727909678466056e-15 7.644102381877425e-16 2.435600140524899e-15 0.9559930166161597 -0.2932894377463769
30000000.0 0.9506009800725697 -0.31031550651517076 7.689442890110211e-16 2.4072470546144438e-15 7.892986966613128e-16 2.4709683001777673e-15 0.9545233254001972 -0.29803626291840035
30500000.0 0.9489835024900493 -0.31522573951664484 7.935195685815667e-16 2.4414284555270042e-15 8.145244983381375e-16 2.5060545028791898e-15 0.9530312050566548 -0.30277213834927125
31000000.0 0.947342045751538 -0.3201234506579607 8.184198459980065e-16 2.475331848804214e-15 8.400839007450124e-16 2.5408553389196196e-15 0.951516763354443 -0.30749691002265417
31500000.0 0.945676737769812 -0.32500847057720084 8.436414379313128e-16 2.508953968721246e-15 8.659731230530239e-16 2.5753674561285728e-15 0.9499801094178654 -0.3122104252349263
32000000.0 0.9439877079796638 -0.32988063152751995 8.691806246663321e-16 2.542291606057416e-15 8.921883470839702e-16 2.609587560335406e-15 0.9484213537076385 -0.3169125326093124
32500000.0 0.9422750873137307 -0.3347397673931542 8.950336510874674e-16 2.5753416085258835e-15 9.187257183221359e-16 2.6435124158103927e-15 0.9468406080017475 -0.3216030821097017
33000000.0 0.9405390081781378 -0.3395857137050139 9.211967276691673e-16 2.608100881184134e-15 9.45581346930998e-16 2.6771388456860666e-15 0.9452379853761427 -0.32628192505414727
33500000.0 0.9387796044279738 -0.3444183076558591 9.47666031470808e-16 2.640566386825203e-15 9.727513087744474e-16 2.7104637323588116e-15 0.9436136001852884 -0.3309489141280461
34000000.0 0.9369970113425932 -0.34923738811505406 9.744377071355563e-16 2.6727351463496288e-15 1.0002316464420858e-15 2.7434840178706485e-15 0.941967568042563 -0.33560390339699564
34500000.0 0.9351913656007688 -0.35404279564290037 1.001507867892799e-15 2.7046042391181097e-15 1.0280183702781967e-15 2.776196704271236e-15 0.9403000058005208 -0.34024674831932866
35000000.0 0.9333628052556878 -0.35883437250454664 1.028872596563734e-15 2.736170803284874e-15 1.0561074594139507e-15 2.8085988539600625e-15 0.938611031531022 -0.34487730575832226
35500000.0 0.9315114697098122 -0.36361196268347495 1.0565279465697167e-15 2.767432036111773e-15 1.0844948628024444e-15 2.8406875900088495e-15 0.9369007645052329 -0.3494954339940814
36000000.0 0.9296374996896019 -0.3683754118945599 1.0844699429429468e-15 2.7983851942630944e-15 1.1131765002561425e-15 2.872460096464177e-15 0.9351693251735071 -0.35410099273509565
36500000.0 0.9277410372201145 -0.37312456759670354 1.1126945833391051e-15 2.8290275940811472e-15 1.1421482634863167e-15 2.903913618630354e-15 0.9334168351451497 -0.35869384312946684
37000000.0 0.9258222255994881 -0.37785927900504096 1.1411978390515258e-15 2.8593566118426325e-15 1.1714060171440661e-15 2.935045463332584e-15 0.931643417168073 -0.36327384777580835
37500000.0 0.9238812093733146 -0.38257939710272054 1.1699756560265156e-15 2.889369683995857e-15 1.2009455998625113e-15 2.9658529991604525e-15 0.9298491951083483 -0.36784087073381344
38000000.0 0.9219181343089106 -0.3872847746522541 1.1990239558794198e-15 2.9190643073788347e-15 1.230762825299757e-15 2.9963336566918038e-15 0.9280342939296622 -0.372394777534495
38500000.0 0.9199331473694974 -0.3919752662064398 1.2283386369110398e-15 2.9484380394183423e-15 1.2608534831822143e-15 3.0264849286970634e-15 0.9261988396726795 -0.3769354351900921
39000000.0 0.9179263966882952 -0.3966507281188566 1.2579155751240164e-15 2.9774884983099965e-15 1.2912133403478874e-15 3.0563043703240846e-15 0.9243429594343207 -0.3814627122036447
39500000.0 0.9158980315425383 -0.40131101855392975 1.287750625238794e-15 3.006213363179433e-15 1.3218381417892325e-15 3.0857895992635945e-15 0.9224667813469632 -0.38597647857823986
40000000.0 0.9138482023274249 -0.40595599749656935 1.3178396217087749e-15 3.034610374224677e-15 1.3527236116951834e-15 3.11493829589533e-15 0.9205704345575645 -0.3904766058259209
40500000.0 0.9117770605300003 -0.41058552676137977 1.3481783797342935e-15 3.062677332839791e-15 1.3838654544919663e-15 3.1437482034149625e-15 0.9186540492067229 -0.39496296697626865
41000000.0 0.9096847587029916 -0.4151994700014436 1.3787626962750336e-15 3.0904121017199255e-15 1.415259355882314e-15 3.1722171279419237e-15 0.9167177564076718 -0.39943543658464753
41500000.0 0.9075714504385926 -0.4197976927166775 1.4095883510605105e-15 3.117812604947851e-15 1.446900983882701e-15 3.200342938608236e-15 0.9147616882252225 -0.4038938907401214
42000000.0 0.905437290342213 -0.42438006226176384 1.440651107598265e-15 3.144876828062125e-15 1.4787859898582195e-15 3.2281235676284757e-15 0.9127859776546541 -0.4083382070730372
42500000.0 0.9032824340061965 -0.4289464478536576 1.4719467141793955e-15 3.171602818107001e-15 1.5109100095547323e-15 3.255557010351009e-15 0.9107907586005616 -0.4127682647622768
43000000.0 0.9011070379835148 -0.43349672057866917 1.5034709048810753e-15 3.1979886836642143e-15 1.543268664127927e-15 3.2826413252906193e-15 0.9087761658556635 -0.417183944542178
43500000.0 0.8989112597614486 -0.43803075339912584 1.5352194005657058e-15 3.2240325948668028e-15 1.5758575611689157e-15 3.3093746341426888e-15 0.9067423350795796 -0.4215851287091257
44000000.0 0.8966952577352588 -0.4425484211596129 1.5671879098763546e-15 3.2497327833950924e-15 1.6086722957260228e-15 3.3357551217790802e-15 0.9046894027775788 -0.42597170112781263
44500000.0 0.8944591911818582 -0.44704960059279486 1.5993721302281356e-15 3.2750875424550178e-15 1.64170845132241e-15 3.3617810362258865e-15 0.9026175062793098 -0.4303435472371726
45000000.0 0.8922032202334904 -0.451534170324821 1.6317677487952006e-15 3.3000952267389364e-15 1.6749616009691914e-15 3.3874506886232024e-15 0.9005267837175133 -0.43470055405598446
45500000.0 0.8899275058514228 -0.45600201088031406 1.6643704434929996e-15 3.3247542523691014e-15 1.7084273081736968e-15 3.412762453167107e-15 0.8984173740067245 -0.4390426101881496
46000000.0 0.8876322097996592 -0.46045300468694594 1.697175883955499e-15 3.349063096823988e-15 1.7421011279425565e-15 3.4377147670340344e-15 0.8962894168219735 -0.44336960582764484
46500000.0 0.8853174946186851 -0.4648870360796035 1.73017973250702e-15 3.373020298847622e-15 1.7759786077792646e-15 3.462306130287706e-15 0.8941430525774843 -0.4476814327631481
47000000.0 0.8829835235992453 -0.4693039913041442 1.7633776451284061e-15 3.396624458342152e-15 1.8100552886759223e-15 3.486535105768855e-15 0.8919784224053835 -0.45197798438234454
47500000.0 0.8806304607561645 -0.47370375852074587 1.7967652724171817e-15 3.4198742362437963e-15 1.844326706098813e-15 3.5104003189678965e-15 0.8897956681344169 -0.45625915567590714
48000000.0 0.8782584708022192 -0.47808622780685284 1.830338260541434e-15 3.44276835438243e-15 1.8787883909675306e-15 3.5339004578807883e-15 0.8875949322686879 -0.4605248432411606
48500000.0 0.8758677191220641 -0.4824512911597198 1.8640922521870816e-15 3.4653055953249593e-15 1.9134358706273288e-15 3.557034272848269e-15 0.8853763579664159 -0.4647749452854234
49000000.0 0.8734583717462228 -0.48679884249855937 1.8980228874982904e-15 3.4874848022027568e-15 1.948264669814421e-15 3.579800576378711e-15 0.8831400890187234 -0.4690093616290349
49500000.0 0.8710305953251475 -0.4911287776662915 1.9321258050106982e-15 3.509304878523306e-15 1.9832703116139234e-15 3.602198242954806e-15 0.880886269828458 -0.4732279937080681
50000000.0 0.8685845571033551 -0.49544099443090256 1.966396642577219e-15 3.530764787966347e-15 2.018448318410145e-15 3.6242262088242786e-15 0.8786150453890477 -0.4774307445767255
50500000.0 0.8661204248936472 -0.49973539248641474 2.0008310382861216e-15 3.5518635541646936e-15 2.053794212828989e-15 3.645883471774935e-15 0.8763265612634056 -0.48161751890942756
51000000.0 0.8636383670514152 -0.5040118734534675 2.0354246313711454e-15 3.572600260469994e-15 2.0893035186721455e-15 3.667169090894199e-15 0.8740209635628798 -0.48578822300259056
51500000.0 0.8611385524490476 -0.5082703408795198 2.0701730631133777e-15 3.59297404970365e-15 2.1249717618428504e-15 3.6880821863134536e-15 0.8716983989262564 -0.4899427647760972
52000000.0 0.8586211504504305 -0.5125107002386694 2.1050719777346488e-15 3.612984123893134e-15 2.1607944712629195e-15 3.708621938937365e-15 0.8693590144988217 -0.4940810537744624
52500000.0 0.8560863308855633 -0.5167328589310994 2.140117023282202e-15 3.63262974399397e-15 2.1967671797808486e-15 3.728787590158517e-15 0.8670029579114865 -0.4982030011676967
53000000.0 0.8535342640252815 -0.520936726282151 2.1753038525044044e-15 3.6519102295976e-15 2.232885425070697e-15 3.748578441557536e-15 0.8646303772599794 -0.5023085197518705
53500000.0 0.850965120556103 -0.5251222135410283 2.210628123717261e-15 3.6708249586254105e-15 2.2691447505215408e-15 3.767993854589023e-15 0.8622414210841114 -0.5063975239493793
54000000.0 0.8483790715551967 -0.5292892338791397 2.2460855016615195e-15 3.689373367009159e-15 2.305540706117266e-15 3.787033250253519e-15 0.8598362383471169 -0.5104699298089146
54500000.0 0.8457762884654848 -0.5334377023880779 2.28167165835014e-15 3.707554948358078e-15 2.342068849306467e-15 3.8056961087557914e-15 0.857414978415078 -0.5145256550051421
55000000.0 0.8431569430708771 -0.5375675360772431 2.317382273905928e-15 3.7253692536128916e-15 2.3787247458622613e-15 3.823981969149704e-15 0.8549777910364328 -0.5185646188380909
55500000.0 0.8405212074716505 -0.5416786538711161 2.3532130373891265e-15 3.742815890687043e-15 2.4155039707317805e-15 3.841890428969936e-15 0.8525248263215759 -0.5225867422322542
56000000.0 0.837869254059973 -0.5457709766061799 2.389159647614777e-15 3.759894524095373e-15 2.4524021088751678e-15 3.859421143850839e-15 0.8500562347225518 -0.5265919477354081
56500000.0 0.8352012554955809 -0.5498444270275004 2.4252178139596483e-15 3.776604874570538e-15 2.4894147560938743e-15 3.8765738271326996e-15 0.8475721670128482 -0.530580159517147
57000000.0 0.8325173846816124 -0.553898929784966 2.461383257158573e-15 3.792946718667432e-15 2.526537519848064e-15 3.893348249455688e-15 0.8450727742672918 -0.5345513033671417
57500000.0 0.8298178147406047 -0.5579344114291941 2.497651710090001e-15 3.808919888355888e-15 2.5637660200629718e-15 3.90974423834178e-15 0.8425582078420506 -0.5385053066931217
58000000.0 0.8271027189906548 -0.5619508004071037 2.5340189185506214e-15 3.82452427060195e-15 2.6010958899240204e-15 3.925761677764943e-15 0.8400286193547503 -0.5424420985185876
58500000.0 0.8243722709217546 -0.5659480270571651 2.5704806420188593e-15 3.8397598069379574e-15 2.638522776660535e-15 3.941400507709845e-15 0.8374841606646991 -0.5463616094802489
59000000.0 0.8216266441723027 -0.5699260236043269 2.6070326544071572e-15 3.854626493021785e-15 2.6760423423179356e-15 3.956660723719421e-15 0.8349249838532407 -0.5502637718252046
59500000.0 0.8188660125057928 -0.5738847241546267 2.6436707448028223e-15 3.8691243781854425e-15 2.7136502645181915e-15 3.971542376431528e-15 0.8323512412042193 -0.5541485194078516
60000000.0 0.8160905497876929 -0.5778240646894899 2.6803907181973633e-15 3.883253564973394e-15 2.75134223720847e-15 3.986045571105043e-15 0.8297630851845795 -0.5580157876865408
60500000.0 0.8133004299625076 -0.5817439830597202 2.7171883962041474e-15 3.897014208670822e-15 2.7891139713977867e-15 4.000170467135637e-15 0.8271606684250915 -0.5618655137199752
61000000.0 0.8104958270310408 -0.5856444189791902 2.7540596177642788e-15 3.910406516822156e-15 2.826961195881569e-15 4.013917277561566e-15 0.8245441437012102 -0.5656976361633532
61500000.0 0.8076769150278474 -0.5895253140182325 2.7910002398405627e-15 3.9234307487401416e-15 2.8648796579539896e-15 4.027286268559733e-15 0.8219136639140712 -0.5695120952642664
62000000.0 0.8048438679988944 -0.5933866115967383 2.8280061380994525e-15 3.93608721500572e-15 2.9028651241079678e-15 4.040277758932344e-15 0.8192693820716274 -0.5733088328583489
62500000.0 0.8019968599794224 -0.5972282569769714 2.8650732075808958e-15 3.948376276959059e-15 2.9409133807227434e-15 4.052892119584447e-15 0.8166114512699294 -0.5770877923646863
63000000.0 0.7991360649720156 -0.6010501972560951 2.9021973633559395e-15 3.960298346181928e-15 2.9790202347388906e-15 4.065129772992626e-15 0.8139400246745485 -0.580848918780985
63500000.0 0.7962616569248884 -0.6048523813584267 2.9393745411720547e-15 3.9718538839718146e-15 3.017181514320726e-15 4.076991192665186e-15 0.8112552555021553 -0.5845921586785073
64000000.0 0.7933738097103813 -0.608634760027416 2.976600698086066e-15 3.983043400807985e-15 3.0553930695059912e-15 4.088476902594078e-15 0.8085572970022455 -0.5883174601967744
64500000.0 0.790472697103682 -0.6123972858173581 3.013871813084618e-15 3.993867455809813e-15 3.0936507728427395e-15 4.099587476698896e-15 0.8058463024390239 -0.5920247730380425
65000000.0 0.7875584927617648 -0.6161399130848452 3.05118388769212e-15 4.004326656187665e-15 3.131950520013382e-15 4.1103235382632204e-15 0.8031224250734456 -0.5957140484615544
65500000.0 0.7846313702025555 -0.619862597979959 3.0885329465660924e-15 4.014421656686606e-15 3.1702882304457833e-15 4.120685759363605e-15 0.8003858181454196 -0.5993852392775716
66000000.0 0.7816915027843271 -0.623565298437215 3.1259150380798654e-15 4.024153159023234e-15 3.208659847911391e-15 4.1306748602914956e-15 0.7976366348561735 -0.6030382998411886
66500000.0 0.7787390636853232 -0.627247974166257 3.1633262348925835e-15 4.033521911315916e-15 3.247061341110328e-15 4.140291608968396e-15 0.7948750283507869 -0.6066731860459357
67000000.0 0.7757742258836164 -0.6309105866423126 3.2007626345064704e-15 4.042528707508707e-15 3.285488704243406e-15 4.149536820354526e-15 0.7921011517008923 -0.6102898553171735
67500000.0 0.7727971621372055 -0.6345530990964133 3.2382203598113162e-15 4.0511743867892485e-15 3.3239379575710264e-15 4.158411355851316e-15 0.7893151578875476 -0.6138882666052795
68000000.0 0.7698080449643456 -0.6381754765053814 3.2756955596161513e-15 4.059459833000893e-15 3.3624051479589315e-15 4.166916122697975e-15 0.7865171997842813 -0.6174683803786374
68500000.0 0.7668070466241262 -0.6417776855815951 3.313184409168101e-15 4.067385974049386e-15 3.4008863494107866e-15 4.175052073362459e-15 0.7837074301403139 -0.6210301586164249
69000000.0 0.7637943390972864 -0.645359694762531 3.3506831106583897e-15 4.074953781304337e-15 3.4393776635875815e-15 4.182820204927098e-15 0.7808860015639582 -0.6245735648012125
69500000.0 0.760770094067281 -0.6489214742000918 3.388187893715457e-15 4.082164268995765e-15 3.4778752203138074e-15 4.190221558469183e-15 0.778053066506196 -0.628098563911368
70000000.0 0.7577344829015897 -0.6524629957497287 3.425695015885258e-15 4.089018493606034e-15 3.516375178070456e-15 4.197257218436782e-15 0.775208777244442 -0.6316051224132795
70500000.0 0.7546876766332791 -0.6559842329593537 3.4632007630986474e-15 4.095517553257377e-15 3.5548737244747885e-15 4.203928312020072e-15 0.772353285866487 -0.635093208253395
71000000.0 0.7516298459428127 -0.6594851610580573 3.500701450125912e-15 4.101662587095338e-15 3.593367076746892e-15 4.21023600851845e-15 0.7694867442546265 -0.6385627908500812
71500000.0 0.7485611611401176 -0.6629657569446326 3.538193421018481e-15 4.107454774668394e-15 3.631851482163088e-15 4.216181518703735e-15 0.7666093040699822 -0.6420138410853155
72000000.0 0.7454817921469018 -0.6664259991759085 3.5756730495377475e-15 4.112895335303981e-15 3.670323218496099e-15 4.2217660941796745e-15 0.7637211167370046 -0.6454463312961995
72500000.0 0.7423919084792299 -0.6698658679549034 3.613136739571132e-15 4.117985527481239e-15 3.708778594442133e-15 4.226991026738095e-15 0.7608223334281725 -0.6488602352663149
73000000.0 0.7392916792303545 -0.6732853451187978 3.650580925535307e-15 4.1227266482006994e-15 3.747213950034772e-15 4.231857647711895e-15 0.7579131050488823 -0.6522555282169088
73500000.0 0.7361812730538086 -0.676684414126739 3.688002072766713e-15 4.127120032351205e-15 3.785625657045831e-15 4.236367327325208e-15 0.7549935822225285 -0.655632186797929
74000000.0 0.7330608581467544 -0.6800630600474746 3.725396677899324e-15 4.131167052074282e-15 3.824010119373129e-15 4.240521474040954e-15 0.7520639152757834 -0.6589901890788996
74500000.0 0.729930602233594 -0.6834212695468246 3.762761269229741e-15 4.134869116126238e-15 3.8623637734152345e-15 4.244321533906051e-15 0.7491242542240688 -0.6623295145396472
75000000.0 0.7267906725498438 -0.6867590308750011 3.800092407069686e-15 4.138227669238251e-15 3.900683088433294e-15 4.247768989894557e-15 0.7461747487572278 -0.6656501440608843
75500000.0 0.7236412358262685 -0.6900763338537703 3.837386684085881e-15 4.141244191474658e-15 3.938964566899919e-15 4.250865361248989e-15 0.7432155482253924 -0.6689520599146451
76000000.0 0.7204824582732786 -0.6933731698634732 3.8746407256274324e-15 4.1439201975897196e-15 3.977204744835217e-15 4.2536122028200355e-15 0.7402468016250527 -0.6722352457545864
76500000.0 0.7173145055655938 -0.6966495318299021 3.911851190040749e-15 4.14625723638308e-15 4.0154001921300614e-15 4.256011104404984e-15 0.737268657585325 -0.6754996866061533
77000000.0 0.714137542827169 -0.6999054142110426 3.949014768972069e-15 4.148256890054181e-15 4.053547512856623e-15 4.258063690085027e-15 0.7342812643544215 -0.6787453688566139
77500000.0 0.7109517346163847 -0.7031408129836848 3.9861281876576656e-15 4.149920773555847e-15 4.0916433455662504e-15 4.2597716175617365e-15 0.7312847697863212 -0.6819722802449658
78000000.0 0.7077572449115039 -0.7063557256299066 4.023188205201795e-15 4.15125053394727e-15 4.129684363574784e-15 4.261136577492933e-15 0.7282793213276441 -0.6851804098517231
78500000.0 0.7045542370963932 -0.7095501511234382 4.0601916148424904e-15 4.152247849746649e-15 4.167667275235379e-15 4.262160292828178e-15 0.7252650660047294 -0.6883697480885818
79000000.0 0.7013428739465116 -0.7127240899159115 4.097135244205253e-15 4.152914430283666e-15 4.2055888241989204e-15 4.262844518144115e-15 0.7222421504109158 -0.6915402866879691
79500000.0 0.6981233176151598 -0.7158775439229935 4.1340159555447416e-15 4.1532520150520536e-15 4.243445789662102e-15 4.2631910389799014e-15 0.7192107206940269 -0.6946920186924851
80000000.0 0.6948957296200022 -0.7190105165104215 4.1708306459745744e-15 4.153262373062468e-15 4.2812349866033135e-15 4.263201671172945e-15 0.7161709225440621 -0.6978249384442335
80500000.0 0.6916602708298469 -0.7221230124799284 4.207576247685265e-15 4.1529473021958474e-15 4.318953266006344e-15 4.2628782601951475e-15 0.7131229011810918 -0.7009390415740501
81000000.0 0.6884171014516982 -0.7252150380550805 4.24424972815049e-15 4.152308628557519e-15 4.35659751507212e-15 4.262222680489924e-15 0.7100668013433586 -0.7040343249906307
81500000.0 0.6851663810180668 -0.7282866008670158 4.280848090321698e-15 4.151348205832209e-15 4.394164657418449e-15 4.261236834810121e-15 0.7070027672755832 -0.7071107868695637
82000000.0 0.681908268374551 -0.7313377099401023 4.3173683728112136e-15 4.150067914640188e-15 4.43165165326798e-15 4.259922653557134e-15 0.7039309427174767 -0.7101684266422689
82500000.0 0.6786429216676775 -0.734368375677509 4.353807650063941e-15 4.1484696618947526e-15 4.469055499624457e-15 4.258282094121379e-15 0.7008514708924605 -0.7132072449848488
83000000.0 0.6753704983330081 -0.7373786098467022 4.3901630325177424e-15 4.1465553801612054e-15 4.50637323043733e-15 4.256317140224296e-15 0.6977644944965868 -0.716227243806853
83500000.0 0.6720911550835084 -0.740368425564869 4.4264316667526605e-15 4.1443270270175715e-15 4.5436019167549374e-15 4.254029801262154e-15 0.6946701556876737 -0.7192284262399641
84000000.0 0.6688050478981785 -0.7433378372842713 4.46261073562904e-15 4.141786584417193e-15 4.580738666866281e-15 4.251422111651767e-15 0.6915685960746365 -0.7222107966266019
84500000.0 0.6655123320109484 -0.7462868607775389 4.4986974584147225e-15 4.138936058053425e-15 4.617780626431583e-15 4.248496130178368e-15 0.6884599567070327 -0.7251743605084566
85000000.0 0.6622131618998273 -0.7492155131228988 4.5346890909013806e-15 4.135777476726556e-15 4.654724978601711e-15 4.245253939345788e-15 0.6853443780648064 -0.7281191246149498
85500000.0 0.6589076912763207 -0.7521238126893544 4.570582925510174e-15 4.1323128917132155e-15 4.69156894412662e-15 4.241697644729153e-15 0.6822220000482419 -0.731045096851628
86000000.0 0.6555960730750999 -0.7550117791218124 4.606376291386806e-15 4.128544376138338e-15 4.728309781452928e-15 4.237829374330235e-15 0.6790929619681205 -0.733952286288494
86500000.0 0.6522784594439331 -0.7578794333261617 4.6420665544861154e-15 4.1244740243499256e-15 4.764944786810749e-15 4.233651277935659e-15 0.675957402536081 -0.7368407031482754
87000000.0 0.6489550017338716 -0.7607267974543158 4.677651117646388e-15 4.120103951296748e-15 4.8014712942899685e-15 4.229165526478132e-15 0.6728154598551862 -0.7397103587946402
87500000.0 0.6456258504896917 -0.7635538948892111 4.713127420653417e-15 4.115436291909125e-15 4.837886675906007e-15 4.224374311400837e-15 0.669667271410691 -0.742561265720355
88000000.0 0.6422911554405895 -0.7663607502297769 4.7484929402945585e-15 4.110473200482962e-15 4.874188341655297e-15 4.219279844025157e-15 0.6665129740610138 -0.7453934375353964
88500000.0 0.6389510654911322 -0.7691473892758732 4.78374519040284e-15 4.105216850067195e-15 4.910373739560563e-15 4.2138843549219175e-15 0.6633527040289118 -0.7482068889550137
89000000.0 0.6356057287124566 -0.7719138390132051 4.818881721891297e-15 4.099669431854778e-15 4.9464403557060675e-15 4.208190093286229e-15 0.6601865968928542 -0.7510016357877488
89500000.0 0.6322552923337207 -0.7746601275982145 4.85390012277766e-15 4.093833154577354e-15 4.9823857142629516e-15 4.202199326316167e-15 0.6570147875786021 -0.7537776949234168
90000000.0 0.6288999027338027 -0.7773862843429545 4.888798018199549e-15 4.087710243903764e-15 5.018207377504831e-15 4.1959143385953345e-15 0.6538374103509823 -0.7565350843210493
90500000.0 0.6255397054332468 -0.780092339699953 4.923573070420306e-15 4.081302941842519e-15 5.053902945813784e-15 4.189337431479527e-15 0.6506545988058646 -0.7592738229968027
91000000.0 0.6221748450864562 -0.7827783252470619 4.958222978825617e-15 4.074613506148375e-15 5.089470057676882e-15 4.1824709224875965e-15 0.6474664858623368 -0.7619939310118385
91500000.0 0.6188054654741268 -0.7854442736723047 4.99274547991105e-15 4.067644209733101e-15 5.124906389673401e-15 4.175317144696624e-15 0.6442732037550746 -0.7646954294601739
92000000.0 0.6154317094959282 -0.7880902187587202 5.027138347260701e-15 4.060397340080637e-15 5.1602096564528975e-15 4.167878446141596e-15 0.6410748840269141 -0.7673783404565097
92500000.0 0.6120537191634172 -0.7907161953692077 5.061399391517036e-15 4.052875198666673e-15 5.195377610704254e-15 4.160157189219616e-15 0.6378716575216128 -0.7700426871240358
93000000.0 0.6086716355931993 -0.7933222394313756 5.095526460342106e-15 4.045080100382841e-15 5.230408043115868e-15 4.152155750098858e-15 0.6346636543768102 -0.7726884935822175
93500000.0 0.6052855990003193 -0.7959083879224043 5.129517438370325e-15 4.03701437296557e-15 5.265298782327186e-15 4.143876518132305e-15 0.6314510040171797 -0.7753157849345702
94000000.0 0.6018957486918906 -0.798474678853912 5.163370247152863e-15 4.028680356429759e-15 5.300047694871612e-15 4.135321895276427e-15 0.6282338351477743 -0.7779245872564176
94500000.0 0.5985022230609568 -0.8010211512568447 5.197082845093903e-15 4.020080402507338e-15 5.334652685111096e-15 4.126494295514886e-15 0.6250122757475627 -0.7805149275826417
95000000.0 0.5951051595805847 -0.8035478451663808 5.230653227378873e-15 4.011216874090847e-15 5.369111695162433e-15 4.117396144287369e-15 0.621786453063154 -0.7830868338954263
95500000.0 0.5917046947981837 -0.8060548016068554 5.2640794258947665e-15 4.00209214468208e-15 5.40342270481551e-15 4.108029877923665e-15 0.618556493602716 -0.7856403351119969
96000000.0 0.5883009643300566 -0.8085420625767161 5.297359509142789e-15 3.992708597845953e-15 5.437583731443627e-15 4.098397943083051e-15 0.615322523130074 -0.7881754610723587
96500000.0 0.5848941028561715 -0.8110096710335012 5.330491582143394e-15 3.983068626669619e-15 5.471592829906013e-15 4.088502796199108e-15 0.6120846666590032 -0.7906922425270347
97000000.0 0.5814842441151573 -0.8134576708788529 5.363473786333955e-15 3.973174633226965e-15 5.505448092442796e-15 4.0783469029300324e-15 0.6088430484477005 -0.7931907111248127
97500000.0 0.5780715208995223 -0.8158861069435639 5.3963042994591015e-15 3.963029028048541e-15 5.539147648562429e-15 4.067932737614531e-15 0.6055977919934427 -0.7956708994004913
98000000.0 0.5746560650510877 -0.8182950249726596 5.42898133545401e-15 3.952634229597004e-15 5.572689664921908e-15 4.057262782733393e-15 0.6023490200274257 -0.7981328407626436
98500000.0 0.5712380074566383 -0.8206844716105255 5.461503144320706e-15 3.9419926637481546e-15 5.606072345199782e-15 4.0463395283767825e-15 0.5990968545097852 -0.8005765694813863
99000000.0 0.5678174780437901 -0.8230544943860721 5.493868011997566e-15 3.9311067632776554e-15 5.6392939299622075e-15 4.035165471717358e-15 0.5958414166247962 -0.8030021206761664
99500000.0 0.5643946057770646 -0.8254051416979495 5.5260742602221775e-15 3.919978967353448e-15 5.672352696522178e-15 4.023743116489274e-15 0.5925828267762503 -0.805409530303564
100000000.0 0.560969518654177 -0.8277364627998097 5.55812024638768e-15 3.908611721033981e-15 5.705246958792059e-15 4.012074972473116e-15 0.5893212045830097 -0.807798835145113
100500000.0 0.5575423437025298 -0.830048507785619 5.590004363392768e-15 3.897007474772281e-15 5.737975067129635e-15 4.000163554986841e-15 0.586056668874735 -0.8101700727951446
101000000.0 0.5541132069759093 -0.8323413275750269 5.621725039485522e-15 3.885168683925935e-15 5.770535408177786e-15 3.988011384382798e-15 0.5827893376877872 -0.8125232816486558
101500000.0 0.5506822335513881 -0.834614973898788 5.653280738101146e-15 3.8730978082730274e-15 5.802926404697941e-15 3.975620985550844e-15 0.5795193282613006 -0.8148585008891993
102000000.0 0.5472495475264247 -0.8368694992842469 5.684669957693869e-15 3.860797311534089e-15 5.835146515397529e-15 3.9629948874276374e-15 0.576246757033426 -0.817175770476808
102500000.0 0.5438152720161638 -0.8391049570408805 5.715891231563052e-15 3.8482696609001e-15 5.867194234751486e-15 3.950135622512162e-15 0.5729717396377424 -0.8194751311359436
103000000.0 0.5403795291509254 -0.841321401245906 5.746943127673746e-15 3.83551732656659e-15 5.899068092818052e-15 3.937045726387472e-15 0.569694390899835 -0.8217566243434836
103500000.0 0.5369424400738971 -0.8435188867299557 5.777824248471774e-15 3.8225427812738765e-15 5.93076665504897e-15 3.9237277372487734e-15 0.5664148248340377 -0.8240202923167383
104000000.0 0.5335041249390055 -0.8456974690628165 5.8085332306935365e-15 3.8093484998534704e-15 5.962288522094248e-15 3.910184195437827e-15 0.5631331546403403 -0.8262661780015069
104500000.0 0.530064702908984 -0.847857204539245 5.839068745170667e-15 3.795936958780705e-15 5.993632329601653e-15 3.896417642983721e-15 0.5598494927014562 -0.8284943250601721
105000000.0 0.5266242921536204 -0.849998150164849 5.8694294966296696e-15 3.7823106357335756e-15 6.024796748011042e-15 3.882430623150053e-15 0.5565639505800505 -0.8307047778598334
105500000.0 0.5231830098481919 -0.8521203636420493 5.899614223486742e-15 3.768472009157878e-15 6.055780482343744e-15 3.8682256799885285e-15 0.5532766390161248 -0.8328975814604871
106000000.0 0.5197409721720757 -0.8542239033561132 5.92962169763784e-15 3.7544235578386025e-15 6.086582271987077e-15 3.8538053578990365e-15 0.5499876679245617 -0.8350727816032454
106500000.0 0.516298294307542 -0.8563088283612699 5.959450724244211e-15 3.740167760477663e-15 6.117200890474205e-15 3.839172201196189e-15 0.5466971463928196 -0.837230424698606
107000000.0 0.5128550904387188 -0.8583751983669028 5.989100141513484e-15 3.7257070952779355e-15 6.14763514525943e-15 3.824328753682351e-15 0.543405182678784 -0.8393705578147677
107500000.0 0.5094114737507325 -0.8604230737238293 6.01856882047651e-15 3.711044039533671e-15 6.177883877489124e-15 3.8092775582272086e-15 0.540111884208767 -0.8414932286659959
108000000.0 0.5059675564290154 -0.8624525154106565 6.047855664760005e-15 3.696181069227226e-15 6.20794596176836e-15 3.79402115635383e-15 0.536817357575658 -0.84359848560104
108500000.0 0.5025234496587858 -0.8644635850202307 6.076959610355254e-15 3.681120658632211e-15 6.237820305923483e-15 3.778562087831299e-15 0.5335217085372203 -0.8456863775916027
109000000.0 0.4990792636246869 -0.8664563447461683 6.105879625382922e-15 3.665865279922961e-15 6.2675058507607056e-15 3.762902890273864e-15 0.5302250420145347 -0.8477569542208668
109500000.0 0.49563510751059525 -0.8684308573694782 6.1346147098541306e-15 3.6504174027904435e-15 6.297001569820855e-15 3.747046098746659e-15 0.5269274620905845 -0.849810265672074
110000000.0 0.4921910894995826 -0.870387186245274 6.163163895427971e-15 3.6347794940645e-15 6.3263064691304756e-15 3.7309942453779704e-15 0.5236290720089855 -0.8518463627171659
110500000.0 0.48874731677404193 -0.8723253952895768 6.191526245165538e-15 3.61895401734252e-15 6.355419586949333e-15 3.7147498589780574e-15 0.5203299741728531 -0.8538652967054796
111000000.0 0.48530389551596365 -0.8742455489662143 6.219700853280675e-15 3.60294343262447e-15 6.384339993514575e-15 3.698315464664531e-15 0.5170302701438089 -0.8558671195525096
111500000.0 0.4818609309073659 -0.8761477122738105 6.24768684488747e-15 3.586750195954302e-15 6.413066790781551e-15 3.681693583494269e-15 0.5137300606411229 -0.8578518837287252
112000000.0 0.4784185271308752 -0.8780319507328749 6.2754833757447724e-15 3.57037675906774e-15 6.441599112161545e-15 3.664886732101886e-15 0.5104294455409909 -0.8598196422484585
112500000.0 0.47497678737045457 -0.8798983303729856 6.303089631997693e-15 3.553825569046442e-15 6.469936122256452e-15 3.6478974223447286e-15 0.5071285238759439 -0.8617704486588493
113000000.0 0.47153581381227566 -0.881746917720074 6.330504829916369e-15 3.5370990679784863e-15 6.498077016590626e-15 3.630728160954387e-15 0.5038273938343873 -0.8637043570288636
113500000.0 0.4680957076457336 -0.8835777797838078 6.357728215632034e-15 3.5201996926252316e-15 6.526021021339941e-15 3.6133814491947214e-15 0.5005261527602715 -0.8656214219383747
114000000.0 0.4646565690646027 -0.8853909840450731 6.384759064870492e-15 3.5031298740944644e-15 6.55376739305824e-15 3.595859782526377e-15 0.4972248971528844 -0.867521698467312
114500000.0 0.4612184972683275 -0.8871865984435614 6.411596682683226e-15 3.485892037519878e-15 6.5813154184013145e-15 3.578165650277758e-15 0.4939237226667744 -0.8694052421848848
115000000.0 0.45778159046345107 -0.8889646913654558 6.438240403176154e-15 3.4684886017468354e-15 6.608664413848463e-15 3.560301535322486e-15 0.4906227241117928 -0.8712721091388703
115500000.0 0.454345945865173 -0.8907253316312246 6.464689589236209e-15 3.450921979024377e-15 6.635813725421873e-15 3.5422699137632573e-15 0.48732199545325816 -0.8731223558449789
116000000.0 0.45091165969903957 -0.8924685884835167 6.490943632255849e-15 3.433194574703503e-15 6.6627627284038e-15 3.5240732546221265e-15 0.4840216298122407 -0.874956039276287
116500000.0 0.4474788272027591 -0.8941945315751648 6.517001951855611e-15 3.415308786941649e-15 6.6895108270517885e-15 3.5057140195371627e-15 0.4807217194659633 -0.8767732168527488
117000000.0 0.4440475426281444 -0.8959032309572921 6.542863995604823e-15 3.3972670064133538e-15 6.71605745431201e-15 3.487194662465473e-15 0.4774223558483182 -0.8785739464307802
117500000.0 0.44061789924317585 -0.8975947570675293 6.56852923874059e-15 3.3790716160271076e-15 6.742402071530783e-15 3.468517629392532e-15 0.47412362955049725 -0.8803582862929185
118000000.0 0.43718998933418524 -0.8992691807183383 6.593997183885173e-15 3.360724990648309e-15 6.768544168164485e-15 3.4496853580478224e-15 0.47082563032173347 -0.8821262951375584
118500000.0 0.4337639042081565 -0.9009265730854432 6.619267360761838e-15 3.3422294968283334e-15 6.794483261487886e-15 3.43070027762673e-15 0.46752844707015406 -0.8838780320687669
119000000.0 0.43033973419514243 -0.9025670056963718 6.644339325909337e-15 3.323587492539667e-15 6.820218896301056e-15 3.4115648085186593e-15 0.4642321678637381 -0.8856135565861765
119500000.0 0.42691756865079367 -0.9041905504191089 6.669212662395091e-15 3.3048013269170864e-15 6.845750644634961e-15 3.3922813620413627e-15 0.4609368799313853 -0.8873329285749543
120000000.0 0.4234974959589979 -0.905797279450854 6.693886979527153e-15 3.2858733400047963e-15 6.8710781054558125e-15 3.3728523401813938e-15 0.4576426696640827 -0.8890362082958555
120500000.0 0.4200796035346257 -0.9073872653068974 6.718361912565151e-15 3.266805862509566e-15 6.8962009043683466e-15 3.353280135340702e-15 0.4543496226161799 -0.8907234563753554
121000000.0 0.41666397782638537 -0.9089605808096033 6.742637122430187e-15 3.2476012155597674e-15 6.9211186933180446e-15 3.3335671300892907e-15 0.45105782350676077 -0.8923947337958604
121500000.0 0.41325070431977656 -0.910517299077504 6.766712295413883e-15 3.228261710470284e-15 6.9458311502924884e-15 3.31371569692391e-15 0.44776735622111496 -0.894050101886005
122000000.0 0.4098398675401485 -0.91205749351451 6.790587142886654e-15 3.2087896485132736e-15 6.9703379790218905e-15 3.2937281980327437e-15 0.44447830381230646 -0.8956896223110287
122500000.0 0.40643155105585355 -0.91358123779923 6.814261401005251e-15 3.189187320694711e-15 6.994638908678919e-15 3.273606985066041e-15 0.44119074850283746 -0.8973133570632352
123000000.0 0.40302583748150006 -0.915088605874404 6.837734830419757e-15 3.1694570075366846e-15 7.018733693577927e-15 3.2533543989126553e-15 0.437904771686404 -0.8989213684525403
123500000.0 0.39962280848129655 -0.9165796719364517 6.861007215980044e-15 3.149600978865406e-15 7.042622112873632e-15 3.2329727694824324e-15 0.43462045392974585 -0.9005137190970955
124000000.0 0.3962225447724892 -0.9180545104251313 6.884078366441836e-15 3.129621493604864e-15 7.0663039702594135e-15 3.2124644154944045e-15 0.4313378749745799 -0.9020904719140039
124500000.0 0.39282512612888765 -0.9195131960133149 6.906948114172456e-15 3.1095207995761075e-15 7.089779093665257e-15 3.1918316442707684e-15 0.4280571137396323 -0.9036516901101183
125000000.0 0.389430631384478 -0.9209558035968759 6.929616314856313e-15 3.0893011333020622e-15 7.11304733495545e-15 3.171076751536528e-15 0.424778248322742 -0.905197437172923
125500000.0 0.3860391384371234 -0.9223824082846911 6.9520828472002674e-15 3.0689647198179037e-15 7.136108569626157e-15 3.1502020212248476e-15 0.4215013560030619 -0.9067277768615055
126000000.0 0.38265072425234214 -0.9237930853887577 6.9743476126389084e-15 3.048513772486849e-15 7.158962696502877e-15 3.1292097252879704e-15 0.41822651324333315 -0.9082427731976096
126500000.0 0.37926546486717205 -0.9251879104144223 6.996410535039865e-15 3.0279504928213967e-15 7.18160963743798e-15 3.1081021235137282e-15 0.41495379569224655 -0.9097424904567809
127000000.0 0.37588343539410995 -0.9265669590507271 7.018271560409206e-15 3.0072770703099126e-15 7.204049337008272e-15 3.0868814633475284e-15 0.41168327818687817 -0.9112269931595934
127500000.0 0.37250471002512714 -0.9279303071608686 7.039930656597015e-15 2.986495682248515e-15 7.226281762212818e-15 3.0655499797197993e-15 0.40841503475520446 -0.9126963460629679
128000000.0 0.3691293620357613 -0.92927803077277 7.06138781300321e-15 2.9656084935782316e-15 7.248306902170941e-15 3.044109894878832e-15 0.40514913861869306 -0.9141506141515745
128500000.0 0.3657574637892794 -0.93061020606977 7.082643040283718e-15 2.9446176567273515e-15 7.27012476782064e-15 3.0225634182289593e-15 0.40188566219496585 -0.9155898626293258
129000000.0 0.3623890867409102 -0.9319269093814239 7.103696370057017e-15 2.9235253114589194e-15 7.291735391617348e-15 3.000912746174008e-15 0.3986246771005358 -0.9170141569109559
129500000.0 0.35902430144214514 -0.9332282171744192 7.124547854611165e-15 2.9023335847233257e-15 7.313138827233227e-15 2.979160061966002e-15 0.3953662541536132 -0.9184235626136874
130000000.0 0.3556631775451058 -0.9345142060436051 7.145197566611385e-15 2.8810445905159323e-15 7.334335149256982e-15 2.9573075355590026e-15 0.39211046337698136 -0.919818145548988
130500000.0 0.35230578380697414 -0.9357849527031372 7.165645598808235e-15 2.8596604297396715e-15 7.355324452894333e-15 2.9353573234680733e-15 0.3888573740009376 -0.9211979717144149
131000000.0 0.3489521880944855 -0.937040533977733 7.185892063746484e-15 2.8381831900725682e-15 7.376106853669187e-15 2.913311568633314e-15 0.38560705446630267 -0.9225631072855477
131500000.0 0.34560245738848244 -0.9382810267940428 7.205937093474701e-15 2.816614945840142e-15 7.396682487125504e-15 2.8911724002888512e-15 0.38235957242749186 -0.9239136186080079
132000000.0 0.3422566577885237 -0.9395065081721333 7.225780839255694e-15 2.794957757892583e-15 7.417051508530111e-15 2.868941933836799e-15 0.3791149947556482 -0.9252495721895725
132500000.0 0.3389148545175543 -0.9407170552170836 7.245423471277759e-15 2.7732136734867215e-15 7.43721409257629e-15 2.8466222707260763e-15 0.37587338754183797 -0.9265710346923676
133000000.0 0.3355771119266241 -0.9419127451106946 7.264865178366921e-15 2.7513847261726363e-15 7.457170433088399e-15 2.8242154983360296e-15 0.3726348161003033 -0.9278780729251599
133500000.0 0.3322434934996638 -0.9430936551033084 7.284106167700105e-15 2.7294729356849427e-15 7.476920742727457e-15 2.801723689864838e-15 0.3693993449717738 -0.9291707538357293
134000000.0 0.3289140618583088 -0.9442598625057443 7.3031466645194e-15 2.70748030783861e-15 7.496465252697856e-15 2.779148904222574e-15 0.3661670379268322 -0.9304491445033357
134500000.0 0.3255888787667722 -0.9454114446813408 7.321986911847403e-15 2.685408834429341e-15 7.515804212455128e-15 2.7564931859289407e-15 0.36293795796933853 -0.9317133121312694
135000000.0 0.322268005136766 -0.9465484790381111 7.340627170203694e-15 2.6632604931383416e-15 7.534937889414968e-15 2.7337585650155334e-15 0.35971216733990125 -0.9329633240394946
135500000.0 0.3189515010324647 -0.9476710430210121 7.359067717322567e-15 2.6410372474415372e-15 7.55386656866346e-15 2.7109470569326376e-15 0.35648972751940367 -0.9341992476573775
136000000.0 0.3156394256755169 -0.9487792141043188 7.37730884787197e-15 2.618741046523101e-15 7.572590552668581e-15 2.6880606624604777e-15 0.35327069923258 -0.9354211505165043
136500000.0 0.31233183745009363 -0.9498730697841112 7.39535087317379e-15 2.5963738251932494e-15 7.591110160993097e-15 2.665101367624834e-15 0.35005514245163816 -0.9366291002435887
137000000.0 0.30902879390798027 -0.9509526875708721 7.41319412092547e-15 2.57393750381026e-15 7.60942573000879e-15 2.642071143617002e-15 0.34684311639993165 -0.9378231645534634
137500000.0 0.30573035177370433 -0.95201814498219 7.430838934923027e-15 2.551433988206629e-15 7.627537612612167e-15 2.6189719467179833e-15 0.3436346795556737 -0.9390034112421644
138000000.0 0.3024365669497034 -0.9530695195355745 7.448285674785533e-15 2.5288651696193546e-15 7.645446177941621e-15 2.5958057182269253e-15 0.34042988965570053 -0.9401699081800968
138500000.0 0.2991474945215232 -0.9541068887413752 7.465534715681059e-15 2.5062329246241862e-15 7.663151811096145e-15 2.5725743843936487e-15 0.3372288036992706 -0.9413227233052953
139000000.0 0.2958631887630537 -0.955130330095814 7.482586448054189e-15 2.4835391150739146e-15 7.680654912855622e-15 2.5492798563552815e-15 0.3340314779519117 -0.9424619246167657
139500000.0 0.29258370314179405 -0.9561399210741176 7.499441277355057e-15 2.460785588040527e-15 7.697955899402687e-15 2.525924030076893e-15 0.33083796794930354 -0.9435875801679153
140000000.0 0.28930909032414925 -0.9571357391237612 7.51609962377004e-15 2.4379741757612233e-15 7.715055202046306e-15 2.5025087862960795e-15 0.3276483285012 -0.9446997580600716
140500000.0 0.2860394021807556 -0.9581178616578153 7.532561921954075e-15 2.415106695588232e-15 7.731953266946975e-15 2.4790359904714486e-15 0.32446261369539015 -0.9457985264360843
141000000.0 0.28277468979183273 -0.9590863660483986 7.54882862076466e-15 2.3921849499423363e-15 7.748650554843723e-15 2.455507492734927e-15 0.32128087690169244 -0.9468839534740171
141500000.0 0.2795150034525616 -0.9600413296202358 7.56490018299759e-15 2.3692107262700818e-15 7.76514754078282e-15 2.4319251278478188e-15 0.3181031707759851 -0.947956107380921
142000000.0 0.27626039267848634 -0.9609828296443177 7.58077708512445e-15 2.346185797004585e-15 7.781444713848331e-15 2.4082907151605886e-15 0.3149295472642702 -0.9490150563866964
142500000.0 0.273010906210941 -0.9619109433316654 7.596459817031854e-15 2.3231119195298957e-15 7.797542576894464e-15 2.3846060585762763e-15 0.3117600576067674 -0.9500608687380391
143000000.0 0.2697665920224944 -0.9628257478271983 7.611948881762581e-15 2.299990836148848e-15 7.813441646279824e-15 2.3608729465174946e-15 0.30859475234204153 -0.9510936126924708
143500000.0 0.26652749732241815 -0.9637273202037014 7.627244795258457e-15 2.2768242740543283e-15 7.829142451603536e-15 2.3370931518969443e-15 0.30543368131115667 -0.9521133565124544
144000000.0 0.26329366856217146 -0.9646157374558961 7.642348086105218e-15 2.253613945303934e-15 7.844645535443299e-15 2.3132684320913922e-15 0.30227689366186056 -0.9531201684595939
144500000.0 0.2600651514409028 -0.9654910764946103 7.657259295279192e-15 2.230361546797916e-15 7.859951453095405e-15 2.289400528919038e-15 0.2991244378527945 -0.9541141167889153
145000000.0 0.25684199091097076 -0.9663534141410481 7.67197897589596e-15 2.2070687602604022e-15 7.875060772316737e-15 2.265491168620237e-15 0.29597636165773095 -0.9550952697432354
145500000.0 0.25362423118347516 -0.9672028271211615 7.68650769296097e-15 2.1837372522237886e-15 7.88997407306876e-15 2.241542061841477e-15 0.2928327121698336 -0.9560636955476083
146000000.0 0.2504119157338045 -0.9680393920601134 7.700846023122096e-15 2.1603686740162753e-15 7.904691947263562e-15 2.2175549036225895e-15 0.28969353580594237 -0.9570194624038585
146500000.0 0.24720508730719473 -0.9688631854768487 7.714994554424245e-15 2.1369646617524776e-15 7.919214998511948e-15 2.1935313733871034e-15 0.2865588783108798 -0.9579626384851935
147000000.0 0.24400378792429914 -0.9696742837787533 7.728953886065961e-15 2.1135268363270625e-15 7.933543841873586e-15 2.1694731349357204e-15 0.2834287847617802 -0.9588932919308981
147500000.0 0.24080805888676698 -0.9704727632564121 7.742724628158058e-15 2.090056803411331e-15 7.9476791036093e-15 2.1453818364428075e-15 0.2803032995724368 -0.9598114908411114
148000000.0 0.23761794078283222 -0.9712587000784657 7.75630740148437e-15 2.0665561534527165e-15 7.961621420935423e-15 2.1212591104558763e-15 0.27718246649767003 -0.9607173032716824
148500000.0 0.23443347349290838 -0.9720321702865564 7.769702837264522e-15 2.0430264616771303e-15 7.975371441780344e-15 2.097106573897994e-15 0.27406632863771196 -0.9616107972291077
149000000.0 0.2312546961951883 -0.972793249790372 7.782911576918844e-15 2.0194692880940795e-15 7.988929824543168e-15 2.072925828073041e-15 0.27095492844260866 -0.9624920406655464
149500000.0 0.2280816473712537 -0.9735420143627815 7.795934271835383e-15 1.995886177504556e-15 8.002297237854557e-15 2.048718458673794e-15 0.2678483077166377 -0.9633611014739171
150000000.0 0.22491436481168292 -0.9742785396350625 7.80877158313904e-15 1.972278659511569e-15 8.015474360339779e-15 2.024486035792758e-15 0.26474650762274177 -0.9642180474830706
150500000.0 0.221752885621664 -0.9750029010922207 7.821424181462863e-15 1.948648248533312e-15 8.028461880383938e-15 2.0002301139356643e-15 0.26164956868697414 -0.9650629464530431
151000000.0 0.21859724622661164 -0.9757151740684001 7.833892746721498e-15 1.9249964438189097e-15 8.041260495899422e-15 1.975952232037646e-15 0.2585575308029587 -0.9658958660703871
151500000.0 0.21544748237778036 -0.9764154337423837 7.846177967886804e-15 1.901324729466673e-15 8.053870914095572e-15 1.951653913481968e-15 0.25547043323636054 -0.9667168739435749
152000000.0 0.21230362915788276 -0.977103755133182 7.85828054276565e-15 1.877634574444807e-15 8.066293851250624e-15 1.927336666121287e-15 0.2523883146293687 -0.9675260375984861
152500000.0 0.2091657209867007 -0.9777802130957112 7.870201177779912e-15 1.8539274326145357e-15 8.078530032485852e-15 1.90300198230139e-15 0.24931121300518724 -0.9683234244739654
153000000.0 0.2060337916266996 -0.9784448823165578 7.881940587748673e-15 1.8302047427555763e-15 8.09058019154202e-15 1.8786513388873417e-15 0.24623916577253668 -0.969109101917458
153500000.0 0.20290787418863587 -0.9790978373098304 7.893499495672602e-15 1.806467928593925e-15 8.102445070558056e-15 1.854286197291999e-15 0.24317220973016304 -0.9698831371807191
154000000.0 0.1997880011371624 -0.9797391524130977 7.904878632520616e-15 1.7827183988318715e-15 8.114125419852044e-15 1.829908003506833e-15 0.2401103810713534 -0.9706455974155996
154500000.0 0.19667420429642665 -0.9803689017834106 7.916078737018686e-15 1.758957547180234e-15 8.125621997704475e-15 1.8055181881350048e-15 0.23705371538845998 -0.9713965496699034
155000000.0 0.19356651485566687 -0.9809871593934104 7.927100555440952e-15 1.7351867523927229e-15 8.136935570143802e-15 1.7811181664266466e-15 0.23400224767742503 -0.9721360608833192
155500000.0 0.19046496337479538 -0.9815939990275168 7.937944841403012e-15 1.7114073783024126e-15 8.148066910734267e-15 1.7567093383163003e-15 0.23095601234231708 -0.9728641978834245
156000000.0 0.18736957978998156 -0.9821894942782021 7.948612355657486e-15 1.6876207738602625e-15 8.159016800366067e-15 1.732293088462446e-15 0.22791504319986425 -0.973581027381762
156500000.0 0.18428039341921898 -0.9827737185423455 7.959103865891832e-15 1.6638282731756098e-15 8.169786027047793e-15 1.707870786289082e-15 0.2248793734839954 -0.9742866159699883
157000000.0 0.18119743296788965 -0.9833467450176684 7.969420146528367e-15 1.640031195558649e-15 8.180375385701177e-15 1.683443786029318e-15 0.22184903585038032 -0.9749810301160906
157500000.0 0.17812072653431238 -0.9839086466992496 7.979561978526589e-15 1.6162308455647596e-15 8.190785677958175e-15 1.6590134267708843e-15 0.21882406238097257 -0.9756643361606777
158000000.0 0.1750503016152856 -0.9844594963761193 7.98953014918772e-15 1.5924285130407446e-15 8.201017711960332e-15 1.6345810325035876e-15 0.21580448458855397 -0.9763366003133376
158500000.0 0.1719861851116144 -0.9849993666279324 7.99932545196149e-15 1.5686254731728102e-15 8.21107230216047e-15 1.6101479121685614e-15 0.2127903334212749 -0.9769978886490662
159000000.0 0.16892840333362708 -0.985528329821719 8.008948686255226e-15 1.544822986536356e-15 8.220950269126686e-15 1.5857153597093772e-15 0.20978163926720012 -0.9776482671047627
159500000.0 0.16587698200667825 -0.9860464581087112 8.018400657245127e-15 1.5210222991474309e-15 8.230652439348675e-15 1.5612846541248627e-15 0.20677843195884674 -0.9782878014757954
160000000.0 0.16283194627663844 -0.9865538234212453 8.027682175689846e-15 1.4972246425158808e-15 8.24017964504634e-15 1.5368570595236539e-15 0.20378074077772304 -0.9789165574126326
160500000.0 0.1597933207153677 -0.9870504974697403 8.036794057746263e-15 1.4734312337001005e-15 8.249532723980723e-15 1.5124338251803976e-15 0.2007885944588638 -0.9795346004175406
161000000.0 0.15676112932617606 -0.987536551739749 8.045737124787569e-15 1.4496432753633718e-15 8.25871251926724e-15 1.4880161855935776e-15 0.19780202119536142 -0.9801419958413483
161500000.0 0.15373539554926724 -0.9880120574890839 8.054512203223546e-15 1.4258619558317137e-15 8.26771987919123e-15 1.4636053605449043e-15 0.19482104864289337 -0.9807388088802782
162000000.0 0.15071614226716407 -0.9884770857450137 8.063120124323099e-15 1.4020884491532187e-15 8.27655565702577e-15 1.439202555160217e-15 0.1918457039242427 -0.981325104572841
162500000.0 0.1477033918101212 -0.9889317073015331 8.071561724039026e-15 1.3783239151588663e-15 8.285220710851825e-15 1.4148089599718947e-15 0.1888760136338162 -0.9819009477967924
163000000.0 0.14469716596151483 -0.9893759927167036 8.079837842835036e-15 1.354569499524673e-15 8.29371590338067e-15 1.3904257509826793e-15 0.18591200384215226 -0.9824664032661587
163500000.0 0.14169748596321882 -0.9898100123100603 8.087949325514935e-15 1.3308263338352668e-15 8.302042101778567e-15 1.3660540897309064e-15 0.18295370010042547 -0.9830215355283209
164000000.0 0.13870437252095735 -0.9902338361600939 8.095897021054116e-15 1.307095535648719e-15 8.310200177493781e-15 1.3416951233570662e-15 0.18000112744494 -0.9835664089611632
164500000.0 0.1357178458096436 -0.9906475341017961 8.103681782433181e-15 1.283378208562699e-15 8.318191006085827e-15 1.317349984671712e-15 0.17705431040161937 -0.9841010877702823
165000000.0 0.13273792547869256 -0.9910511757242751 8.111304466473836e-15 1.2596754422818234e-15 8.326015467056969e-15 1.2930197922245794e-15 0.17411327299048224 -0.9846256359862589
165500000.0 0.12976463065731828 -0.9914448303684357 8.118765933676922e-15 1.2359883126862356e-15 8.333674443686018e-15 1.2687056503749884e-15 0.17117803873011278 -0.9851401174619879
166000000.0 0.12679797995980685 -0.991828567124726 8.126067048062692e-15 1.2123178819013042e-15 8.341168822864354e-15 1.2444086493633976e-15 0.16824863064212056 -0.9856445958700721
166500000.0 0.12383799149077046 -0.9922024548309513 8.13320867701324e-15 1.188665198368478e-15 8.34849949493418e-15 1.2201298653841141e-15 0.16532507125558857 -0.9861391347002686
167000000.0 0.1208846828503762 -0.9925665620701465 8.140191691117111e-15 1.1650312969171792e-15 8.355667353529038e-15 1.1958703606591057e-15 0.1624073826115122 -0.9866237972570024
167500000.0 0.1179380711395564 -0.9929209571685185 8.147016964016084e-15 1.141417198837765e-15 8.362673295416512e-15 1.1716311835128838e-15 0.15949558626722468 -0.9870986466569301
168000000.0 0.11499817296519274 -0.9932657081934465 8.153685372254092e-15 1.1178239119554887e-15 8.369518220343172e-15 1.147413368448429e-15 0.1565897033008142 -0.9875637458265656
168500000.0 0.11206500444527921 -0.9936008829515447 8.16019779512832e-15 1.094252430705415e-15 8.376203030881716e-15 1.1232179362240874e-15 0.15368975431552398 -0.9880191574999617
169000000.0 0.10913858121405914 -0.9939265489867876 8.166555114542387e-15 1.0707037362082731e-15 8.382728632280273e-15 1.0990458939314346e-15 0.15079575944414297 -0.9884649442164456
169500000.0 0.10621891842714223 -0.9942427735786932 8.172758214861722e-15 1.0471787963472281e-15 8.389095932313946e-15 1.0748982350740666e-15 0.14790773835338247 -0.9889011683184138
170000000.0 0.10330603076659052 -0.9945496237405673 8.178807982770992e-15 1.023678565845462e-15 8.395305841138458e-15 1.0507759396472524e-15 0.14502571024823874 -0.9893278919491778
170500000.0 0.10039993244598704 -0.9948471662178054 8.184705307133663e-15 1.0002039863446387e-15 8.401359271146023e-15 1.026679974218467e-15 0.14214969387634066 -0.9897451770508673
171000000.0 0.09750063721547203 -0.995135467486251 8.19045107885364e-15 9.767559864841192e-16 8.407257136823292e-15 1.0026112920086993e-15 0.13927970753228397 -0.9901530853623843
171500000.0 0.09460815836675972 -0.9954145937506139 8.19604619073901e-15 9.533354819809708e-16 8.41300035461151e-15 9.78570832974585e-16 0.13641576906195124 -0.9905516784174123
172000000.0 0.09172250873812345 -0.9956846109429414 8.20149153736782e-15 9.299433757106549e-16 8.41858984276873e-15 9.545595238912323e-16 0.13355789586681208 -0.9909410175424779
172500000.0 0.08884370071936021 -0.9959455847211456 8.206788014955916e-15 9.065805577884856e-16 8.424026521234161e-15 9.305782784358268e-16 0.1307061049082149 -0.9913211638550605
173000000.0 0.0859717462567238 -0.9961975804675876 8.211936521226853e-15 8.832479056516647e-16 8.429311311494624e-15 9.066279972718552e-16 0.12786041271165519 -0.9916921782617593
173500000.0 0.08310665685783333 -0.9964406632877124 8.216937955283793e-15 8.599462841420124e-16 8.434445136453074e-15 8.827095681340054e-16 0.12502083537103087 -0.9920541214565051
174000000.0 0.08024844359655442 -0.9966748980087383 8.221793217483446e-15 8.366765455892757e-16 8.439428920299184e-15 8.588238659136975e-16 0.12218738855288118 -0.9924070539188259
174500000.0 0.07739711711785321 -0.9969003491783969 8.226503209311982e-15 8.134395298950183e-16 8.444263588382006e-15 8.349717527451812e-16 0.11936008750060649 -0.9927510359121591
175000000.0 0.07455268764262135 -0.9971170810637279 8.231068833262988e-15 7.902360646170403e-16 8.448950067084653e-15 8.111540780921969e-16 0.11653894703867233 -0.9930861274822144
175500000.0 0.07171516497247313 -0.9973251576499217 8.235490992717319e-15 7.670669650543031e-16 8.453489283701013e-15 7.873716788351535e-16 0.11372398157679202 -0.9934123884553838
176000000.0 0.0688845584945165 -0.9975246426392119 8.239770591824975e-15 7.439330343323916e-16 8.45788216631446e-15 7.636253793588369e-16 0.11091520511409664 -0.9937298784371991
176500000.0 0.06606087718609396 -0.9977155994498202 8.243908535388901e-15 7.20835063489364e-16 8.462129643678606e-15 7.399159916405533e-16 0.10811263124328163 -0.9940386568108365
177000000.0 0.06324412961949313 -0.9978980912149447 8.24790572875069e-15 6.977738315620764e-16 8.466232645099972e-15 7.162443153387197e-16 0.10531627315473567 -0.9943387827356681
177500000.0 0.06043432396663199 -0.9980721807818009 8.25176307767825e-15 6.747501056728986e-16 8.470192100322673e-15 6.92611137881887e-16 0.10252614364065224 -0.9946303151458571
178000000.0 0.05763146800371278 -0.9982379307107073 8.255481488255327e-15 6.517646411168092e-16 8.474008939415027e-15 6.690172345581363e-16 0.09974225509912073 -0.9949133127490011
178500000.0 0.05483556911584667 -0.998395403274217 8.259061866772938e-15 6.288181814488297e-16 8.477684092658107e-15 6.454633686048277e-16 0.09696461953819559 -0.9951878340248176
179000000.0 0.052046634301649186 -0.9985446604562958 8.262505119622675e-15 6.059114585718029e-16 8.481218490436218e-15 6.219502912987023e-16 0.09419324857994985 -0.9954539372238731
179500000.0 0.04926467017780735 -0.9986857639515452 8.265812153191837e-15 5.830451928244572e-16 8.48461306312927e-15 5.984787420462803e-16 0.09142815346450496 -0.9957116803663588
180000000.0 0.04648968298361363 -0.998818775164469 8.268983873760434e-15 5.602200930697536e-16 8.487868741007032e-15 5.750494484745414e-16 0.0886693450540418 -0.9959611212409043
180500000.0 0.04372167858547342 -0.9989437552087839 8.272021187399972e-15 5.3743685678348305e-16 8.490986454125265e-15 5.516631265218686e-16 0.0859168338367902 -0.9962023174034382
181000000.0 0.040960662481382026 -0.9990607649067722 8.274924999874114e-15 5.146961701430934e-16 8.493967132223722e-15 5.283204805292349e-16 0.08317062993099819 -0.9964353261760874
181500000.0 0.038206639805368474 -0.999169864788678 8.277696216541044e-15 4.919987081167276e-16 8.496811704625954e-15 5.05022203331582e-16 0.08043074308888129 -0.9966602046461177
182000000.0 0.0354596153319115 -0.9992711150921427 8.280335742257665e-15 4.693451345524336e-16 8.499521100140956e-15 4.8176897634941e-16 0.07769718270054717 -0.9968770096649159
182500000.0 0.03271959348032508 -0.9993645757616836 8.282844481285546e-15 4.467361022675375e-16 8.502096246966634e-15 4.585614696805021e-16 0.07496995779790074 -0.9970857978470113
183000000.0 0.02998657831911294 -0.9994503064482105 8.285223337198594e-15 4.241722531381807e-16 8.50453807259503e-15 4.3540034219183905e-16 0.07224907705853056 -0.9972866255691374
183500000.0 0.02726057357029125 -0.9995283665085835 8.287473212792456e-15 4.016542181889376e-16 8.506847503719316e-15 4.122862416115861e-16 0.06953454880956651 -0.9974795489693291
184000000.0 0.024541582613682344 -0.9995988150052075 8.289595009995659e-15 3.7918261768255785e-16 8.509025466142601e-15 3.8921980462121525e-16 0.06682638103152194 -0.9976646239460638
184500000.0 0.021829608491175705 -0.9996617107056672 8.291589629782378e-15 3.567580612097814e-16 8.511072884688383e-15 3.6620165694768664e-16 0.06412458136210984 -0.9978419061574345
185000000.0 0.019124653910960986 -0.9997171120823978 8.293457972086969e-15 3.343811477792056e-16 8.512990683112799e-15 3.4323241345571373e-16 0.06142915710003849 -0.998011451020365
185500000.0 0.01642672125172667 -0.9997650773123934 8.29520093572008e-15 3.120524659072025e-16 8.514779784018551e-15 3.203126782400396e-16 0.05874011520878347 -0.9981733137098571
186000000.0 0.013735812566829146 -0.9998056642769502 8.296819418286435e-15 2.8977259370783297e-16 8.51644110877049e-15 2.974430447177466e-16 0.056057462320336204 -0.9983275491582774
186500000.0 0.01105192958843067 -0.9998389305614481 8.298314316104274e-15 2.675420989828037e-16 8.517975577412915e-15 2.7462409572058284e-16 0.0533812047389336 -0.9984742120546775
187000000.0 0.008375073731608335 -0.9998649334551637 8.299686524126343e-15 2.453615393113606e-16 8.519384108588513e-15 2.518564035872504e-16 0.05071134844475917 -0.998613356844152
187500000.0 0.005705246098425626 -0.9998837299511208 8.300936935862534e-15 2.232314621401763e-16 8.520667619458894e-15 2.2914053025565184e-16 0.04804789909762579 -0.9987450377272264
188000000.0 0.0030424474819808057 -0.9998953767459724 8.302066443304054e-15 2.011524048731872e-16 8.521827025626806e-15 2.064770273551245e-16 0.04539086204063194 -0.9988693086592842
188500000.0 0.00038667837041792436 -0.9998999302399164 8.303075936849177e-15 1.7912489496135168e-16 8.522863241059891e-15 1.8386643629856284e-16 0.04274024230379827 -0.9989862233500232
189000000.0 -0.002262061049090816 -0.9998974465366451 8.30396630523055e-15 1.5714944999231719e-16 8.523777178016066e-15 1.6130928837446625e-16 0.04009604460767632 -0.9990958352629474
189500000.0 -0.004903770886394407 -0.999887981443324 8.304738435443983e-15 1.3522657778001306e-16 8.52456974697044e-15 1.3880610483889603e-16 0.03745827336693723 -0.9991981976148899
190000000.0 -0.0075384515444431085 -0.9998715904706054 8.305393212678785e-15 1.133567764541038e-16 8.525241856543812e-15 1.1635739700730095e-16 0.03482693269393597 -0.9992933633755691
190500000.0 -0.010166103715400956 -0.999848328832669 8.305931520249578e-15 9.1540534549317e-17 8.525794413432656e-15 9.396366634621036e-17 0.03220202640225068 -0.9993813852671738
191000000.0 -0.012786728376789144 -0.9998182514472961 8.306354239529582e-15 6.977833109462892e-17 8.526228322340658e-15 7.162540456477959e-17 0.029583558010200673 -0.9994623157639831
191500000.0 -0.015400326787659445 -0.9997814129359708 8.30666224988536e-15 4.807063570227922e-17 8.526544485911736e-15 4.934309370616332e-17 0.02697153074433648 -0.9995362070920136
192000000.0 -0.018006900484799953 -0.9997378676240116 8.306856428613015e-15 2.6417908656640232e-17 8.526743804664535e-15 2.7117206238728812e-17 0.024365947542913283 -0.9996031112286968
192500000.0 -0.020606451278972922 -0.9996876695407317 8.306937650875776e-15 4.8206010028537604e-18 8.526827176928369e-15 4.948205147045236e-18 0.021766811059331412 -0.9996630799025874
193000000.0 -0.02319898125118203 -0.9996308724196264 8.306906789643051e-15 -1.672084536471271e-17 8.526795498780664e-15 -1.7163455977308474e-17 0.019174123665558946 -0.9997161645931005
193500000.0 -0.025784492748971412 -0.9995675296985884 8.306764715630815e-15 -3.82059976142002e-17 8.526649663985746e-15 -3.921733284516382e-17 0.01658788745552987 -0.9997624165302756
194000000.0 -0.028362988382755302 -0.9994976945201501 8.306512297243382e-15 -5.963443188826972e-17 8.526390563935121e-15 -6.121299037942955e-17 0.014008104248514782 -0.999801886694571
194500000.0 -0.03093447102218061 -0.9994214197317524 8.306150400516583e-15 -8.100573321630604e-17 8.526019087589082e-15 -8.31500026249736e-17 0.011434775592471861 -0.999834625816683
195000000.0 -0.03349894379251931 -0.9993387578860374 8.305679889062199e-15 -1.0231949542691849e-16 8.525536121419727e-15 -1.0502795265880818e-16 0.008867902767368768 -0.999860684377395
195500000.0 -0.03605641007108807 -0.9992497612411709 8.305101624013819e-15 -1.2357532106065495e-16 8.524942549355363e-15 -1.268464325004965e-16 0.006307486788485869 -0.9998801126074525
196000000.0 -0.038606873483707574 -0.999154481761184 8.3044164639739e-15 -1.4477282128303534e-16 8.524239252726149e-15 -1.4860504302288e-16 0.0037535284096906927 -0.9998929604874615
196500000.0 -0.04115033790118334 -0.9990529711163444 8.303625264962218e-15 -1.659116157978515e-16 8.52342711021122e-15 -1.7030339386309056e-16 0.0012060281266896647 -0.999899277747818
197000000.0 -0.04368680743582347 -0.9989452806835459 8.30272888036553e-15 -1.8699133276075993e-16 8.52250699778697e-15 -1.9194110333383881e-16 -0.0013350138197426027 -0.9998991138686579
197500000.0 -0.046216286437983624 -0.9988314615467282 8.301728160888497e-15 -2.080116086931857e-16 8.521479788676724e-15 -2.1351779833506473e-16 -0.00386959744056101 -0.9998925180798345
198000000.0 -0.048738779492644636 -0.9987115644973117 8.300623954505893e-15 -2.2897208839655227e-16 8.520346353301639e-15 -2.3503311426587197e-16 -0.006397722995270973 -0.9998795393609192
198500000.0 -0.05125429141601949 -0.9985856400346619 8.299417106416002e-15 -2.498724248668182e-16 8.519107559232895e-15 -2.564866949368217e-16 -0.008919390988772279 -0.9998602264412267
199000000.0 -0.05376282725219111 -0.9984537383665693 8.298108458995228e-15 -2.70712279209374e-16 8.517764271145101e-15 -2.7787819248256274e-16 -0.011434602168229422 -0.9998346277998647
199500000.0 -0.056264392269780576 -0.9983159094097569 8.296698851753932e-15 -2.91491320554265e-16 8.51631735077095e-15 -2.992072672748196e-16 -0.013943357519963666 -0.9998027916658052
200000000.0 -0.05875899195864598 -0.9981722027904031 8.295189121293394e-15 -3.1220922597177407e-16 8.51476765685704e-15 -3.2047358783573284e-16 -0.016445658266373002 -0.9997647660179778
