! Created with skrf 2.0.1 (http://scikit-rf.org).
# Hz S RI R 100.0 
!freq ReS11 ImS11 ReS21 ImS21 ReS12 ImS12 ReS22 ImS22
500000.0 0.9999437582052497 -0.010605678967483293 8.960874854323361e-19 8.627680228617665e-17 9.19807448278624e-19 8.856059999375192e-17 0.9999483291014926 -0.010165585429933177
1000000.0 0.999775051798234 -0.0212095686386574 3.583769816914598e-18 1.7251172537503066e-16 3.678634312068598e-18 1.7707821222319333e-16 0.9997933324240194 -0.020329595187191934
1500000.0 0.9994939376946557 -0.03180988072331917 8.061307324522591e-18 2.5866292773086706e-16 8.274694871349355e-18 2.6550988758256664e-16 0.9995350580093141 -0.03049045441309782
2000000.0 0.9991005107006882 -0.0424048289422897 1.4325802905317326e-17 3.4468864308147843e-16 1.470501533516321e-17 3.5381275422187043e-16 0.9991735858855783 -0.040646589876081475
2500000.0 0.9985949034330723 -0.05299263002995929 2.2373205538810647e-17 4.3054721790061746e-16 2.2965437450134668e-17 4.4194405602151615e-16 0.9987090280055072 -0.05079643078303148
3000000.0 0.9979772862074301 -0.06357150473327905 3.219831519867309e-17 5.16197148711766e-16 3.30506235421659e-17 5.298611908835479e-16 0.9981415281596518 -0.06093840958800103
3500000.0 0.9972478668949558 -0.07413967880602461 4.37947891508222e-17 6.015971191543184e-16 4.495406298128899e-17 6.175217487789915e-16 0.9974712618652481 -0.07107096279739936
4000000.0 0.9964068907477364 -0.08469538399716944 5.715514962527705e-17 6.867060367539085e-16 5.86680800565369e-17 7.048835494915121e-16 0.9966984362306623 -0.08119253177080146
4500000.0 0.9954546401929513 -0.09523685903221513 7.227079284629678e-17 7.714830693393216e-16 7.418384324516967e-17 7.919046799983038e-16 0.995823289795654 -0.09130156351651701
5000000.0 0.9943914345962817 -0.10576235058634005 8.913199940284778e-17 8.558876810493315e-16 9.149137585763196e-17 8.785435314300489e-16 0.9948460923476902 -0.10139651148107091
5500000.0 0.9932176299949066 -0.11627011424824692 1.0772794593860714e-16 9.398796678738089e-16 1.1057956803698313e-16 9.647588355528216e-16 0.9937671447145633 -0.11147583633175664
6000000.0 0.9919336188004827 -0.12675841547360397 1.2804671813826278e-16 1.0234191926745906e-15 1.3143619008898005e-16 1.0505097007159763e-15 0.9925867785336194 -0.12153800673143841
6500000.0 0.9905398294725877 -0.13722553052699998 1.5007532498433142e-16 1.1064668196328975e-15 1.540479071162707e-16 1.1357556472114153e-15 0.991305355997925 -0.1315815001047913
7000000.0 0.9890367261631227 -0.1476697474113528 1.7379971425629385e-16 1.188983548071482e-15 1.7840029492778348e-16 1.220456641991021e-15 0.9899232695797238 -0.14160480339518464
7500000.0 0.9874248083322178 -0.1580893667837358 1.9920478924148996e-16 1.2709308456012068e-15 2.0447785719200194e-16 1.3045731326906504e-15 0.9884409417315926 -0.15160641381143022
8000000.0 0.9857046103362452 -0.16848270285661832 2.262744266250291e-16 1.3522706805434256e-15 2.322640438003952e-16 1.3880660809107523e-15 0.9868588245656996 -0.16158483956363667
8500000.0 0.9838767009885483 -0.17884808428353624 2.5499149552370395e-16 1.432965553581256e-15 2.617412704052149e-16 1.4708969947054654e-15 0.9851773995116342 -0.1715386005874294
9000000.0 0.9819416830935791 -0.18918385502824842 2.8533787762698995e-16 1.512978528594721e-15 2.9289093909358644e-16 1.553027960233993e-15 0.9833971769532769 -0.18146622925581857
9500000.0 0.9799001929551281 -0.19948837521646004 3.1729448840611956e-16 1.5922732626366618e-15 3.256934601580456e-16 1.634421672529985e-15 0.9815186958452169 -0.1913662710780165
10000000.0 0.9777528998594013 -0.2097600219692307 3.5084129935052136e-16 1.6708140350083859e-15 3.601282749215635e-16 1.7150414653468431e-15 0.9795425233092564 -0.2012372853845319
10500000.0 0.9755005055337123 -0.21999719021721972 3.8595736118910516e-16 1.7485657753961422e-15 3.9617387957352038e-16 1.7948513400389825e-15 0.9774692542115527 -0.21107784599789367
11000000.0 0.9731437435815994 -0.23019829349495818 4.22620828052307e-16 1.8254940910317106e-15 4.3380784997133796e-16 1.8738159934413734e-15 0.9752995107209855 -0.22088654188837697
11500000.0 0.9706833788951953 -0.24036176471437182 4.608089825293978e-16 1.9015652928426334e-15 4.730068673610564e-16 1.951900844711998e-15 0.9730339418493432 -0.23066197781413655
12000000.0 0.968120207045727 -0.25048605691682535 5.004982615740899e-16 1.9767464205600608e-15 5.137467449686965e-16 2.0290720611042977e-15 0.9706732229739622 -0.2404027749451754
12500000.0 0.9654550536530204 -0.260569644002988 5.416642832104046e-16 2.0510052667543945e-15 5.560024554130317e-16 2.1052965826390682e-15 0.9682180553434618 -0.25010757147060714
13000000.0 0.9626887737349328 -0.2706110214398725 5.842818739895793e-16 2.1243103997715214e-15 5.997481588893029e-16 2.1805421456478265e-15 0.9656691655672308 -0.259775023188698
13500000.0 0.9598222510376454 -0.28060870694443274 6.283250971479072e-16 2.196631185544774e-15 6.449572320724115e-16 2.254777305162135e-15 0.9630273050893497 -0.26940380407920245
14000000.0 0.9568563973477683 -0.29056124114315235 6.737672814145283e-16 2.2679378082603273e-15 6.916022976872658e-16 2.3279714561260417e-15 0.9602932496476453 -0.27899260685753907
14500000.0 0.9537921517872325 -0.3004671882070989 7.205810504176068e-16 2.3382012898562196e-15 7.396552546933691e-16 2.4000948534112367e-15 0.957467798718583 -0.2885401435103818
15000000.0 0.9506304800919572 -0.3103251364619621 7.687383526366776e-16 2.407393508337759e-15 7.890873090300016e-16 2.4711186306172877e-15 0.9545517749487149 -0.2980451458122701
15500000.0 0.9473723738752876 -0.320133698972636 8.182104918486221e-16 2.475487214894587e-15 8.398690048681433e-16 2.541014817641795e-15 0.9515460235734287 -0.3075063658228816
16000000.0 0.9440188498772248 -0.32989151410195616 8.689681580144197e-16 2.5424560498072527e-15 8.919702563148013e-16 2.609756357008033e-15 0.9484514118237203 -0.3169225763646262
16500000.0 0.9405709492004573 -0.33959724604323716 9.209814585536657e-16 2.6082745571336396e-15 9.453603795153794e-16 2.6773171189401173e-15 0.9452688283217593 -0.3262925714802715
17000000.0 0.9370297365342256 -0.34924958532630984 9.742199499538856e-16 2.672918198168135e-15 1.000008125099724e-15 2.7436719151784687e-15 0.9419991824659952 -0.33561516687032633
17500000.0 0.9333962993670596 -0.35884724929679757 1.0286526696617546e-15 2.7363633636689435e-15 1.055881710917506e-15 2.8087965115307692e-15 0.9386434038065614 -0.3448892003099435
18000000.0 0.929671747189409 -0.368388982568415 1.0842481682035507e-15 2.798587384851367e-15 1.1129488550089385e-15 2.872667639156255e-15 0.9352024414117581 -0.3541135320451439
18500000.0 0.9258572106872126 -0.377873557448116 1.1409745414826077e-15 2.859568543147324e-15 1.1711768087571451e-15 2.935263004583577e-15 0.9316772632263659 -0.3632870451681821
19000000.0 0.9219538409274396 -0.3872997743339672 1.1987994632019529e-15 2.9192860787338136e-15 1.2305323901690603e-15 2.9965612984650038e-15 0.9280688554225729 -0.3724086459719159
19500000.0 0.9179628085366248 -0.3966664620856579 1.2576902173609348e-15 2.9777201978352672e-15 1.2909820172322537e-15 3.056542203072083e-15 0.9243782217442742 -0.3814772642830667
20000000.0 0.9138853028734323 -0.4059724783676044 1.3176137307753815e-15 3.0348520788071295e-15 1.3524917412959065e-15 3.1151863985402597e-15 0.9206063828455221 -0.39049185377429424
20500000.0 0.9097225311962605 -0.41521670996465077 1.3785366055716054e-15 3.090663877010116e-15 1.4150272804249704e-15 3.1724755678721473e-15 0.9167543756238734 -0.3994513922550297
21000000.0 0.9054757178268946 -0.4243980730704026 1.4404251516055127e-15 3.14513872848689e-15 1.4785540526774205e-15 3.2283924007115442e-15 0.9128232525494204 -0.4083548819410592
21500000.0 0.9011461033112074 -0.43351551354827766 1.5032454187591425e-15 3.1982607524548222e-15 1.5430372092557088e-15 3.2829205959021543e-15 0.9088140809902283 -0.4172013497028583
22000000.0 0.8967349435778956 -0.4425680071653945 1.566963229067955e-15 3.2500150526306638e-15 1.6084416674844615e-15 3.3360448628473583e-15 0.9047279425349506 -0.4259898472927199
22500000.0 0.8922435090962131 -0.45155455979945125 1.631544208633535e-15 3.300387717404812e-15 1.6747321435679501e-15 3.3877509216890566e-15 0.900565932313351 -0.43471945155074937
23000000.0 0.8876730840336652 -0.4604742076188003 1.6969538192774967e-15 3.3493658188846917e-15 1.7418731850818978e-15 3.438025502325759e-15 0.8963291583154616 -0.4433892645898142
23500000.0 0.8830249654145967 -0.46932601723593936 1.763157389893917e-15 3.396937410828602e-15 1.809829203155816e-15 3.4868563422917122e-15 0.8920187407100957 -0.4519984139595786
24000000.0 0.8783004622805956 -0.4781090858346998 1.8301201474588777e-15 3.443091525492995e-15 1.8785645043033777e-15 3.534232183520752e-15 0.8876358111634315 -0.4605460527897697
24500000.0 0.8735008948535998 -0.4868225412714167 1.897807247657286e-15 3.4878181694177405e-15 1.948043321859977e-15 3.580142768019973e-15 0.883181512158346 -0.4690313599128494
25000000.0 0.8686275937026064 -0.49546554215043 1.9661838050886932e-15 3.531108318175495e-15 2.0182298469880984e-15 3.624578832480141e-15 0.8786569963152007 -0.4774535399662986
25500000.0 0.8636818989148135 -0.5040372778742684 2.035214923015418e-15 3.572953910112571e-15 2.089088259212885e-15 3.667532101850843e-15 0.8740634257147248 -0.48581182347472696
26000000.0 0.8586651592720389 -0.5125369686689185 2.1048657226178852e-15 3.613347839110079e-15 2.160582756451887e-15 3.708995281910051e-15 0.8694019712236715 -0.49410546691206886
26500000.0 0.8535787314332252 -0.5209638655845967 2.175101371723894e-15 3.652283946395325e-15 2.2326775845048232e-15 3.748962050858732e-15 0.8646738118238605 -0.5023337527441242
27000000.0 0.8484239791237976 -0.5293172504724754 2.2458871129801655e-15 3.689757011434472e-15 2.3053370659708198e-15 3.787427049972446e-15 0.8598801339452431 -0.51049598945174
27500000.0 0.8432022723326442 -0.5375964359378369 2.3171882914362775e-15 3.7257627419385416e-15 2.3785256285625306e-15 3.824385873342797e-15 0.8550221308035844 -0.518591511534944
28000000.0 0.8379149865174347 -0.5458007652701556 2.38897038151298e-15 3.7602977630157186e-15 2.452207832788324e-15 3.8598350567426025e-15 0.8501010017433481 -0.5266196794983606
28500000.0 0.8325635018189814 -0.5539296123506264 2.4611990133285296e-15 3.793359605503689e-15 2.526348398975461e-15 3.893772065649373e-15 0.8451179515863455 -0.5345798798182548
29000000.0 0.827149202285315 -0.561982381537684 2.533839998358632e-15 3.824946693516518e-15 2.6009122336093012e-15 3.926195282462541e-15 0.8400741899866996 -0.5424715248915747
29500000.0 0.8216734751061102 -0.5699585075310734 2.606859354407299e-15 3.855058331241097e-15 2.675864454965142e-15 3.9571039929504215e-15 0.8349709307926493 -0.5502940529673721
30000000.0 0.8161377098580781 -0.5778574552150484 2.6802233298678396e-15 3.883694689018753e-15 2.7511704180114016e-15 3.986498371963367e-15 0.8298093914156928 -0.5580469280609989
30500000.0 0.8105432977619057 -0.5856787194812997 2.753898427254936e-15 3.910856788748008e-15 2.8267957385646262e-15 4.014379468450164e-15 0.824590792207565 -0.565729639851493
31000000.0 0.8048916309512966 -0.5934218250322123 2.8278514259906146e-15 3.936546488644851e-15 2.9027063166786038e-15 4.04074918981486e-15 0.819316355845508 -0.5733417035625763
31500000.0 0.7991841017546314 -0.6010863261650884 2.9020494044287338e-15 3.960766467396999e-15 2.978868359251845e-15 4.065610285651623e-15 0.813987306726275 -0.5808826598277013
32000000.0 0.79342210198974 -0.6086718065379593 2.976459761104328e-15 3.983520207748901e-15 3.055248401839442e-15 4.088966330895195e-15 0.8086048703692982 -0.5883520745395995
32500000.0 0.7876070222722484 -0.6161778789176401 3.051050235195997e-15 4.004811979554205e-15 3.1318133296570685e-15 4.110821708424755e-15 0.8031702728294109 -0.5957495386847816
33000000.0 0.7817402513379292 -0.6236041849106781 3.1257889261911666e-15 4.024646822332428e-15 3.208530397766814e-15 4.131181591158875e-15 0.7976847401195082 -0.6030746681634643
33500000.0 0.775823175379454 -0.6309503946778553 3.200644312745807e-15 4.043030527366428e-15 3.2853672504361356e-15 4.150051923679069e-15 0.7921494976435051 -0.6103271035953937
34000000.0 0.7698571773979181 -0.6382162066329174 3.275585270731884e-15 4.0599696193771096e-15 3.362291939663022e-15 4.1674394034194444e-15 0.7865657696399191 -0.617506510112049
34500000.0 0.7638436365694808 -0.6454013471261977 3.3505810904673925e-15 4.0754713378115505e-15 3.4392729428621166e-15 4.183351461459503e-15 0.7809347786363973 -0.6246125771357163
35000000.0 0.7577839276274239 -0.6525055701138158 3.425601493125455e-15 4.089543617780371e-15 3.5162791797081903e-15 4.197796242956912e-15 0.7752577449154813 -0.6316450181459222
35500000.0 0.7516794202599131 -0.6595286568131223 3.500616646320528e-15 4.102195070679763e-15 3.5932800281348945e-15 4.2107825872565805e-15 0.7695358859918708 -0.6386035704337286
36000000.0 0.7455314785237173 -0.6664704153450776 3.57559717887122e-15 4.1134349645332e-15 3.670245339488401e-15 4.222320007712021e-15 0.7637704161014465 -0.6454879948443842
36500000.0 0.739341460274097 -0.6733306803642365 3.6505141947407735e-15 4.123273204087231e-15 3.747145452836854e-15 4.232418671254246e-15 0.7579625457022691 -0.6522980755088399
37000000.0 0.7331107166110694 -0.6801093126770167 3.725339286157538e-15 4.131720310695221e-15 3.823951208438179e-15 4.241089377743038e-15 0.7521134809877711 -0.6590336195646299
37500000.0 0.726840591342207 -0.6868061988489267 3.800044545919281e-15 4.138787402022319e-15 3.900633960370084e-15 4.2483435391346725e-15 0.7462244234123202 -0.6656944568666241
38000000.0 0.7205324204621137 -0.6934212508014217 3.874602578886337e-15 4.144486171604071e-15 3.9771655883274436e-15 4.254193158499472e-15 0.7402965692293201 -0.6722804396881542
38500000.0 0.7141875316486946 -0.699954405399055 3.948986512669944e-15 4.148828868290627e-15 4.05351850859356e-15 4.2586508089218486e-15 0.7343311090420013 -0.6787914424130175
39000000.0 0.7078072437763006 -0.7064056240275813 4.023170007523304e-15 4.1518282756074306e-15 4.1296656841930386e-15 4.261729612314686e-15 0.7283292273670178 -0.6852273612188612
39500000.0 0.7013928664458119 -0.7127748921636672 4.097127265443971e-15 4.153497691062682e-15 4.205580634235133e-15 4.263443218179048e-15 0.7222921022109646 -0.6915881137524454
40000000.0 0.6949456995317052 -0.7190622189368515 4.170833038497314e-15 4.1538509054308964e-15 4.281237442457539e-15 4.263805782339362e-15 0.7162209046599008 -0.6978736387972778
40500000.0 0.6884670327461084 -0.7252676366843962 4.24426263637186e-15 4.152902182040988e-15 4.3566107649817034e-15 4.26283194568325e-15 0.7101167984819434 -0.7040838959341105
41000000.0 0.6819581452198407 -0.7313912004996467 4.317391933178114e-15 4.150666236096507e-15 4.4316758372916546e-15 4.260536812934357e-15 0.7039809397429885 -0.7102188651947929
41500000.0 0.6754203051004084 -0.7374329877745307 4.390197373503629e-15 4.147158214054562e-15 4.5064084804493155e-15 4.25693593148542e-15 0.6978144764355924 -0.7162785467099513
42000000.0 0.6688547691668969 -0.7433930977367875 4.462655977737646e-15 4.142393673089124e-15 4.580785106560109e-15 4.252045270317952e-15 0.6916185481210271 -0.722262960350981
42500000.0 0.6622627824616956 -0.7492716509825343 4.534745346679639e-15 4.136388560663356e-15 4.6547827235035086e-15 4.245881199033854e-15 0.6853942855845103 -0.7281721453668073
43000000.0 0.6556455779389561 -0.7550687890047451 4.606443665446739e-15 4.129159194234649e-15 4.728378938943858e-15 4.238460467023213e-15 0.6791428105035966 -0.7340061600158925
43500000.0 0.6490043761296771 -0.7607846737182138 4.677729706695643e-15 4.120722241115041e-15 4.801551963637588e-15 4.229800182791618e-15 0.6728652351296958 -0.7397650811939288
44000000.0 0.6423403848232798 -0.7664194869815615 4.748582833175314e-15 4.111094698508616e-15 4.874280614053483e-15 4.2199177934691394e-15 0.6665626619826727 -0.7454490040576712
44500000.0 0.635654798765542 -0.7719734301168266 4.818982999627265e-15 4.100293873746579e-15 4.946544314323281e-15 4.208831064522223e-15 0.6602361835584692 -0.7510580416453496
45000000.0 0.6289487993727038 -0.7774467234271651 4.888910754050758e-15 4.088337364739515e-15 5.018323097540337e-15 4.1965580596885065e-15 0.6538868820496702 -0.7565923244940835
45500000.0 0.6222235544615947 -0.7828396057131874 4.958347238350679e-15 4.075243040665491e-15 5.089597606424668e-15 4.183117121153694e-15 0.6475158290789308 -0.7620520002547234
46000000.0 0.615480217995568 -0.7881523337884169 5.0272741883862866e-15 4.061029022911442e-15 5.16034909337298e-15 4.168526849988509e-15 0.6411240854451593 -0.7674372333045275
46500000.0 0.608719929846043 -0.7933851819943633 5.095673933439243e-15 4.0457136662844684e-15 5.230559419912633e-15 4.1528060868625886e-15 0.6347127008823482 -0.7727482043580781
47000000.0 0.6019438155694367 -0.7985384417156809 5.163529395119866e-15 4.029315540508424e-15 5.300211055578923e-15 4.1359738930512936e-15 0.6282827138309272 -0.7779851100768228
47500000.0 0.5951529861992502 -0.8036124208958667 5.230824085730513e-15 4.011853412020379e-15 5.369287076235144e-15 4.118049531750331e-15 0.6218351512214965 -0.7831481626776241
48000000.0 0.5883485380530693 -0.8086074435539266 5.297542106105395e-15 3.993346226080448e-15 5.437771161855243e-15 4.099052449711989e-15 0.6153710282708152 -0.7882375895406915
48500000.0 0.5815315525542216 -0.8135238493024508 5.363668142946189e-15 3.973813089207434e-15 5.505647593788881e-15 4.0790022592158626e-15 0.608891348289862 -0.7932536328172431
49000000.0 0.5747030960678304 -0.8183619928674903 5.4291874656729566e-15 3.953273251951892e-15 5.572901251529006e-15 4.0579187203859105e-15 0.602397102503829 -0.7981965490372601
49500000.0 0.567864219750989 -0.8231222436106318 5.494085922809884e-15 3.931746092017198e-15 5.639517609001913e-15 4.0358217238647115e-15 0.5958892698838579 -0.8030666087176598
50000000.0 0.5610159594167811 -0.8278049850536469 5.5583499379254505e-15 3.909251097738251e-15 5.705482730399947e-15 4.0127312738548514e-15 0.5893688169903518 -0.8078640959712183
50500000.0 0.5541593354118505 -0.8324106144060731 5.621966505146518e-15 3.885807851926555e-15 5.770783265576864e-15 3.988667471536374e-15 0.582836697827664 -0.8125893081165563
51000000.0 0.5472953525072324 -0.8369395420960732 5.684923184266003e-15 3.861436016089566e-15 5.835406445025984e-15 3.963650498868405e-15 0.5762938537099727 -0.8172425552894984
51500000.0 0.5404249998021418 -0.841392191304896 5.747208095463291e-15 3.836155315031194e-15 5.8993400744608484e-15 3.937700602782018e-15 0.569741213138138 -0.8218241600560807
52000000.0 0.5335492506404174 -0.8457689975052577 5.80880991365694e-15 3.8099855218396775e-15 5.962572529018449e-15 3.910838079770728e-15 0.5631796916873393 -0.8263344570275125
52500000.0 0.5266690625393025 -0.8500704080039325 5.869717862508591e-15 3.7829464432680254e-15 6.025092747104405e-15 3.883083260883942e-15 0.5566101919052712 -0.8307737924773368
53000000.0 0.5197853771302559 -0.8542968814888403 5.929921708097199e-15 3.755057905511579e-15 6.086890223899768e-15 3.854456497128059e-15 0.5500336032206872 -0.8351425239610706
53500000.0 0.5128991201114718 -0.8584488875808964 5.989411752282195e-15 3.726339740386379e-15 6.14795500454849e-15 3.82497814527896e-15 0.5434508018620646 -0.8394410199385534
54000000.0 0.506011201211789 -0.8625269063908684 6.048178825774135e-15 3.696811771911305e-15 6.208277677044628e-15 3.794668554108957e-15 0.5368626507861682 -0.8436696593992514
54500000.0 0.49912251416566555 -0.866531428081489 6.106214280931059e-15 3.66649380329619e-15 6.267849364838057e-15 3.7635480510305006e-15 0.5302699996162774 -0.8478288314907397
55000000.0 0.49223393669889526 -0.8704629524350292 6.163509984298461e-15 3.635405604337496e-15 6.326661719176951e-15 3.7316369291581945e-15 0.5236736845898528 -0.8519189351505738
55500000.0 0.48534633052474085 -0.8743219884265572 6.220058308910556e-15 3.6035668992223615e-15 6.3847069112052494e-15 3.6989554347900136e-15 0.5170745285153964 -0.8559403787417559
56000000.0 0.4784605413501614 -0.878109053803063 6.275852126370115e-15 3.570997354741271e-15 6.441977623832853e-15 3.665523755307951e-15 0.5104733407382785 -0.8598935796919879
56500000.0 0.4715773988918005 -0.8818246746686351 6.330884798723803e-15 3.5377165689089064e-15 6.498467043395901e-15 3.6313620074976704e-15 0.503870917115285 -0.8637789641368918
57000000.0 0.46469771690142075 -0.8854693850758518 6.3851501701496595e-15 3.5037440599922507e-15 6.554168851124209e-15 3.596490226286164e-15 0.4972680399976455 -0.867596966567369
57500000.0 0.45782229320045115 -0.8890437266235446 6.438642558472947e-15 3.469099255944348e-15 6.6090772144325276e-15 3.5609283538958175e-15 0.4906654782223083 -0.8713480294812593
58000000.0 0.45095190972333027 -0.8925482480610678 6.49135674652612e-15 3.4338014842416298e-15 6.66318677805181e-15 3.524696229412731e-15 0.4840639871112079 -0.8750326030394527
58500000.0 0.4440873325693245 -0.8959835048992041 6.543287973368393e-15 3.397869962122241e-15 6.716492655016381e-15 3.487813578766656e-15 0.4774643084782963 -0.8786511447265873
59000000.0 0.4372293120624986 -0.8993500590278266 6.594431925379993e-15 3.3613237872222966e-15 6.768990417522404e-15 3.4503000051193575e-15 0.4708671706440852 -0.8822041190164747
59500000.0 0.43037858281952734 -0.9026484783404088 6.644784727245493e-15 3.3241819286064882e-15 6.820676087672581e-15 3.4121749796578386e-15 0.4642732884574646 -0.8856919970423647
60000000.0 0.4235358638250333 -0.9058793363654912 6.694342932840663e-15 3.2864632181891855e-15 6.871546128121739e-15 3.3734578327883107e-15 0.45768336332455395 -0.8891152562721689
60500000.0 0.4167018585141415 -0.909043211905166 6.743103516036308e-15 3.2481863425415626e-15 6.921597432637269e-15 3.3341677457264848e-15 0.45109808324434914 -0.8924743801887388
61000000.0 0.40987725486194393 -0.9121406886806648 6.791063861432578e-15 3.2093698350801273e-15 6.970827316588147e-15 3.2943237424793074e-15 0.444518122850922 -0.8957698579753021
61500000.0 0.4030627254795731 -0.9151723549851024 6.8382217550365185e-15 3.1700320686315188e-15 7.01923350737572e-15 3.2539446822129368e-15 0.43794414346194027 -0.8990021842061271
62000000.0 0.3962589277165847 -0.918138803343428 6.884575374895289e-15 3.1301912483681665e-15 7.06681413481899e-15 3.2130492520014412e-15 0.43137679313327226 -0.9021718585425142
62500000.0 0.38946650376936204 -0.921040630179619 6.930123281697005e-15 3.0898654051091747e-15 7.11356772150663e-15 3.1716559599503005e-15 0.42481670671944394 -0.9052793854341576
63000000.0 0.38268608079523586 -0.9238784354911539 6.974864409350733e-15 3.0490723889803437e-15 7.159493173127664e-15 3.129783128688645e-15 0.41826450593971276 -0.9083252738259613
63500000.0 0.37591827103206354 -0.9266528225307814 7.018798055556713e-15 3.0078298634272096e-15 7.204589768792038e-15 3.0874488892238132e-15 0.4117207994495401 -0.911310036870346
64000000.0 0.3691636719229586 -0.9293643974955993 7.061923872377394e-15 2.9661552995745706e-15 7.248857151352092e-15 3.044671175151545e-15 0.40518618291722774 -0.9142341916450986
64500000.0 0.3624228662459168 -0.9320137692234457 7.10424185681953e-15 2.9240659709258404e-15 7.292295317735338e-15 3.00146771721505e-15 0.39866123910550316 -0.9170982588768036
65000000.0 0.355696422248061 -0.9346015488966029 7.145752341437001e-15 2.8815789483953622e-15 7.334904609298571e-15 2.9578560382058272e-15 0.39214653795783017 -0.9199027626698851
65500000.0 0.3489848937842441 -0.9371283497527966 7.1864559849638e-15 2.838711095666696e-15 7.376685702212841e-15 2.913853448199052e-15 0.3856426366892292 -0.9226482302412871
66000000.0 0.34228882045975023 -0.9395947868034776 7.226353762985827e-15 2.7954790648696107e-15 7.4176395978884e-15 2.869477040116159e-15 0.3791500798813987 -0.9253351916608
66500000.0 0.3356087277768465 -0.9420014765593561 7.265446958660277e-15 2.751899292568571e-15 7.457767613448343e-15 2.8247436856071523e-15 0.3726693995819236 -0.9279641795970618
67000000.0 0.3289451272849292 -0.9443490367631565 7.30373715349031e-15 2.7079879960552332e-15 7.497071372259171e-15 2.779670031244928e-15 0.36620111540736766 -0.9305357290692281
67500000.0 0.32229851673404114 -0.9466380861295604 7.34122621816286e-15 2.6637611699374594e-15 7.535552794525996e-15 2.7342724950240375e-15 0.35974573465005094 -0.9330503772043048
68000000.0 0.31566938023150337 -0.9488692440922819 7.377916303456705e-15 2.6192345830172625e-15 7.57321408795997e-15 2.688567263155951e-15 0.3533037523883069 -0.9355086630001571
68500000.0 0.30905818840145277 -0.9510431305582372 7.413809831227607e-15 2.5744237754500245e-15 7.610057738524807e-15 2.642570287153112e-15 0.3468756516000344 -0.9379111270941678
69000000.0 0.3024653985470507 -0.953160365668744 7.448909485476954e-15 2.529344056177297e-15 7.64608650126899e-15 2.596297281193753e-15 0.3404619032793478 -0.9402583115375284
69500000.0 0.29589145481515006 -0.9552215695676968 7.483218203509968e-15 2.4840105006254383e-15 7.681303391249936e-15 2.549763719759641e-15 0.3340629665561427 -0.9425507595751588
70000000.0 0.2893367883632103 -0.9572273621766478 7.516739167189056e-15 2.4384379486623706e-15 7.715711674555826e-15 2.502984835538728e-15 0.3276792888183966 -0.9447890154312072
70500000.0 0.2828018175282556 -0.9591783629767278 7.549475794287736e-15 2.392641002804697e-15 7.749314859430646e-15 2.455975617584823e-15 0.32131130583701983 -0.9469736241001168
71000000.0 0.2762869479976784 -0.9610751907973321 7.58143172994993e-15 2.346634026667441e-15 7.782116687507424e-15 2.408750809726284e-15 0.31495944189309627 -0.94910513114322
71500000.0 0.2697925729816919 -0.9629184636114934 7.612610838259303e-15 2.3004311436486706e-15 7.8141211251544e-15 2.3613249092158417e-15 0.3086241099073325 -0.9511840824908215
72000000.0 0.2633190733872538 -0.9647087983378603 7.643017193922884e-15 2.2540462358413867e-15 7.845332354938489e-15 2.3137121656136575e-15 0.30230571157155783 -0.9532110242497271
72500000.0 0.2568668179932713 -0.9664468106492008 7.672655074072867e-15 2.20749294316494e-15 7.87575476721009e-15 2.2659265798957776e-15 0.2960046374821095 -0.9551865025161761
73000000.0 0.2504361636269182 -0.9681331147873372 7.701528950190195e-15 2.1607846627084825e-15 7.905392951812877e-15 2.217981903780179e-15 0.28972126727495706 -0.9571110631941275
73500000.0 0.24402745534089418 -0.9697683233844298 7.729643480153263e-15 2.113934548278863e-15 7.934251689922025e-15 2.169891639262715e-15 0.2834559697623991 -0.9589852518188475
74000000.0 0.23764102659146472 -0.9713530472905075 7.757003500414647e-15 2.066955510145516e-15 7.96233594601386e-15 2.1216690383552457e-15 0.27720910307119667 -0.960809613385744
74500000.0 0.23127719941712474 -0.9728878954071591 7.783614018308659e-15 2.019860214975044e-15 7.98965085996977e-15 2.073327103018501e-15 0.2709810147819988 -0.9625846921843904
75000000.0 0.22493628461772774 -0.9743734745272843 7.809480204492052e-15 1.9726610859480726e-15 8.016201739316841e-15 2.0248785852819895e-15 0.26477204206991545 -0.9643110316376798
75500000.0 0.21861858193394917 -0.9758103891808027 7.834607385520124e-15 1.9253703030513044e-15 8.041994051607421e-15 1.9763359875438398e-15 0.25858251184610626 -0.9659891741460449
76000000.0 0.2123243802269305 -0.977199241486223 7.859001036559974e-15 1.8779998035376323e-15 8.0670334169395e-15 1.9277115630430377e-15 0.2524127409002593 -0.9676196609366813
76500000.0 0.20605395765797496 -0.978540631007975 7.882666774242729e-15 1.830561282547254e-15 8.091325600619745e-15 1.879017316497033e-15 0.24626303604382366 -0.9692030319177083
77000000.0 0.19980758186816716 -0.9798351546193856 7.905610349655971e-15 1.783066193883088e-15 8.114876505970395e-15 1.8302650048976388e-15 0.24013369425388706 -0.9707398255371931
77500000.0 0.19358551015778866 -0.9810834063712159 7.927837641477644e-15 1.7355257509334863e-15 8.137692167281462e-15 1.781466138458197e-15 0.23402500281756577 -0.9722305786469783
78000000.0 0.18738798966541692 -0.9822859773656313 7.949354649252303e-15 1.6879509277358376e-15 8.159778742908982e-15 1.7326319817053173e-15 0.2279372394768049 -0.973675826371228
78500000.0 0.1812152575465848 -0.9834434556355162 7.97016748681052e-15 1.6403524601743912e-15 8.18114250852021e-15 1.6837735547084182e-15 0.22187067257347384 -0.9750761019796325
79000000.0 0.17506754115190448 -0.9845564260290145 7.990282375831895e-15 1.5927408473059556e-15 8.201789850486268e-15 1.6349016344405214e-15 0.21582556119465257 -0.9764319367651865
79500000.0 0.16894505820454056 -0.9856254700991978 8.009705639552102e-15 1.5451263528072536e-15 8.221727259422601e-15 1.5860267562639195e-15 0.20980215531800633 -0.9777438599264733
80000000.0 0.1628480169769392 -0.9866511659987428 8.028443696614013e-15 1.4975190065377685e-15 8.240961323877323e-15 1.5371592155343541e-15 0.2038006959571487 -0.979012398454372
80500000.0 0.15677661646672164 -0.9876340883795204 8.046503055062918e-15 1.449928606212082e-15 8.259498724167523e-15 1.488309069317694e-15 0.19782141530690586 -0.9802380770231143
81000000.0 0.1507310465716464 -0.9885748082969826 8.063890306485766e-15 1.4023647191759156e-15 8.277346226363332e-15 1.4394861382129233e-15 0.19186453688838268 -0.9814214178856128
81500000.0 0.14471148826355926 -0.9894738931192404 8.080612120293848e-15 1.3548366842801028e-15 8.294510676419273e-15 1.3907000082757535e-15 0.18593027569374954 -0.9825629407729798
82000000.0 0.13871811376125148 -0.9903319064407248 8.096675238148607e-15 1.3073536138469892e-15 8.31099899445254e-15 1.3419600330370563e-15 0.18001883833066654 -0.9836631627981588
82500000.0 0.13275108670214686 -0.991149408000327 8.112086468529872e-15 1.2599243957237593e-15 8.326818169167431e-15 1.2932753356105671e-15 0.17413042316626343 -0.9847225983635888
83000000.0 0.12681056231274557 -0.9919269536039059 8.126852681445745e-15 1.2125576954174689e-15 8.34197525242519e-15 1.2446548108844028e-15 0.16826522047059858 -0.9857417590728217
83500000.0 0.1208966875777627 -0.9926650950510574 8.140980803283191e-15 1.1652619583066422e-15 8.35647735395833e-15 1.1961071277912293e-15 0.16242341255953127 -0.9867211536460118
84000000.0 0.11500960140788594 -0.9933643800660457 8.154477811798408e-15 1.1180454119243723e-15 8.370331636228363e-15 1.1476407316517824e-15 0.15660517393692558 -0.9876612878391989
84500000.0 0.10914943480610632 -0.9940253522327827 8.167350731245771e-15 1.0709160683081846e-15 8.383545309425804e-15 1.099263846586929e-15 0.15081067143613344 -0.9885626643673039
85000000.0 0.10331631103255348 -0.994648550933758 8.179606627644095e-15 1.0238817264118197e-15 8.396125626611141e-15 1.050984477993309e-15 0.14504006436068367 -0.989425782830753
85500000.0 0.09751034576779001 -0.9952345112928136 8.191252604178984e-15 9.769499745744936e-16 8.408079878995486e-15 1.0028104150779353e-15 0.13929350462412254 -0.9902511396456606
86000000.0 0.09173164727450914 -0.9957837641216618 8.202295796739724e-15 9.301281930431174e-16 8.419415391359302e-15 9.547492334471994e-16 0.13357113688894953 -0.9910392279774768
86500000.0 0.08598031655759837 -0.9962968358700406 8.212743369589264e-15 8.834235565432424e-16 8.430139517607805e-15 9.068082977458552e-16 0.12787309870458924 -0.9917905376780354
87000000.0 0.080256447522519 -0.9967742485794189 8.222602511165755e-15 8.368430368945499e-16 8.440259636461317e-15 8.58994764341755e-16 0.12219952064435602 -0.9925055552259091
87500000.0 0.07456012713196257 -0.9972165198401327 8.231880430013836e-15 7.903934056669126e-16 8.449783147278902e-15 8.113155840522134e-16 0.11655052644135835 -0.9931847636700045
88000000.0 0.06889143556075392 -0.9976241627518745 8.240584350844124e-15 7.440812368731374e-16 8.458717466013521e-15 7.637775049080144e-16 0.11092623312329863 -0.9938286425763123
88500000.0 0.06325044634896126 -0.997997685887426 8.248721510718974e-15 6.979129096946162e-16 8.467070021296832e-15 7.163870749512407e-16 0.10532675114612752 -0.9944376679777379
89000000.0 0.057637226553181514 -0.9983375932595432 8.25629915536277e-15 6.518946112363528e-16 8.474848250651786e-15 6.691506450631983e-16 0.09975218452651187 -0.9950123123269323
89500000.0 0.05205183689598415 -0.9986443842909015 8.26332453559475e-15 6.060323393078336e-16 8.482059596831085e-15 6.220743718189232e-16 0.09420263097307584 -0.9955530444520524
90000000.0 0.0464943319134723 -0.9989185537870041 8.269804903882573e-15 5.603319052264172e-16 8.488711504279463e-15 5.751642203647639e-16 0.08867818201638757 -0.99606032951537
90500000.0 0.04096476010094889 -0.9991605919119667 8.275747511014509e-15 5.147989366400235e-16 8.494811415717831e-15 5.28425967315789e-16 0.08317892313765025 -0.9965346289746586
91000000.0 0.035463164056673616 -0.9993709841670857 8.281159602888353e-15 4.694388803660585e-16 8.50036676884716e-15 4.818652036698629e-16 0.07770493389607548 -0.9969764005472781
91500000.0 0.029989580623671352 -0.9995502113721033 8.286048417414911e-15 4.242570052435075e-16 8.505384993170012e-15 4.3548733773524783e-16 0.07225628805489845 -0.9973860981768932
92000000.0 0.024544041029603517 -0.9996987496490816 8.290421181534122e-15 3.792584049955158e-16 8.50987350692767e-15 3.892975980689261e-16 0.06683305370603125 -0.9977641720027466
92500000.0 0.019126571024667065 -0.9998170704088015 8.294285108341592e-15 3.344480010995348e-16 8.513839714150634e-15 3.433010364227573e-16 0.06143529339329999 -0.9981110683314153
93000000.0 0.013737191017525144 -0.9999056403396012 8.29764739432353e-15 2.8983054566256577e-16 8.517291001820328e-15 2.975025306948099e-16 0.05606306423427518 -0.9984272296109835
93500000.0 0.008375916209247797 -0.9999649213985737 8.300515216697866e-15 2.4541062429889047e-16 8.520234737139871e-15 2.519067878832726e-16 0.050716418040647276 -0.9987130944075613
94000000.0 0.0030427567252724833 -0.9999953708050406 8.30289573085954e-15 2.0119265900801866e-16 8.522678264911705e-15 2.065183470405832e-16 0.04539540143715472 -0.998969097384078
94500000.0 -0.002262282254641562 -0.9999974410362259 8.30479606792767e-15 1.5718091105042185e-16 8.524628905019875e-15 1.6134158222528827e-16 0.04010005597902974 -0.9991956692812868
95000000.0 -0.007539200368453272 -0.9999715798250487 8.30622333239254e-15 1.133794838189857e-16 8.5260939500147e-15 1.1638070544948767e-16 0.03483041826795284 -0.9993932369009105
95500000.0 -0.012788001945881061 -0.9999182301599626 8.307184599860253e-15 6.979232570405117e-17 8.527080662797731e-15 7.163976961974878e-17 0.029586520066510483 -0.9995622230908658
96000000.0 -0.01800869588444306 -0.999837830286763 8.307686914892815e-15 2.6423232950093406e-17 8.527596274404685e-15 2.7122671469361088e-17 0.024368388411131967 -0.9997030467325007
96500000.0 -0.02320129552750204 -0.999730813712294 8.307737288941596e-15 -1.6724147497853176e-17 8.527647981884169e-15 -1.7166845519855785e-17 0.019176045723508853 -0.9998161227297797
97000000.0 -0.028365818544301577 -0.999597609209982 8.307342698371988e-15 -5.964631515981011e-17 8.52724294627007e-15 -6.122518820815706e-17 0.01400950992047896 -0.9999018620003607
97500000.0 -0.03350228681199938 -0.9994386408271229 8.306510082577027e-15 -1.0233991320020162e-16 8.526388290645242e-15 -1.0504891090255868e-16 0.008868794522371585 -0.9999606714684933
98000000.0 -0.038610726299682915 -0.9992543278938605 8.305246342178045e-15 -1.4480172562249324e-16 8.52509109829452e-15 -1.4863471247720858e-16 0.003753908759814892 -0.9999929540596888
98500000.0 -0.04369116695437041 -0.9990450850337864 8.303558337310032e-15 -1.870286744807436e-16 8.523358410944712e-15 -1.9197943351111755e-16 -0.0013351423210135466 -0.9999991086970941
99000000.0 -0.04874364258897727 -0.9988113221760944 8.301452885989747e-15 -2.2901781710933273e-16 8.521197227089476e-15 -2.3508005344458156e-16 -0.006398357754675968 -0.9999795302995174
99500000.0 -0.05376819077225213 -0.9985534445692323 8.298936762564406e-15 -2.7076634337239603e-16 8.518614500396992e-15 -2.77933687755782e-16 -0.011435740554323254 -0.9999346097810466
100000000.0 -0.058764852720658484 -0.9982718527959804 8.29601669623894e-15 -3.1227157293408147e-16 8.5156171381982e-15 -3.2053758515880477e-16 -0.01644729761109011 -0.9998647340522078
100500000.0 -0.06373367319220354 -0.9979669427899049 8.29269936967968e-15 -3.535309525509179e-16 8.512212000053557e-15 -3.6288912482432233e-16 -0.021433039595046055 -0.999770286022603
101000000.0 -0.06867470038219148 -0.9976391058531221 8.288991417692617e-15 -3.9454205338736106e-16 8.508405896396245e-15 -4.049858136240871e-16 -0.0263929808576912 -0.9996516446049823
101500000.0 -0.07358798582089489 -0.9972887286753142 8.284899425973945e-15 -4.3530256835557953e-16 8.504205587249728e-15 -4.468252834002846e-16 -0.03132713933599964 -0.9995091847206923
102000000.0 -0.07847358427312878 -0.9969161933539491 8.280429929931224e-15 -4.758103094804419e-16 8.499617781017638e-15 -4.88405288260808e-16 -0.03623553645800713 -0.9993432773064521
102500000.0 -0.0833315536397053 -0.9965218774156405 8.275589413572927e-15 -5.16063205290638e-16 8.494649133343976e-15 -5.297237019012739e-16 -0.04111819704993386 -0.9991542893224064
103000000.0 -0.08816195486077151 -0.9961061538385992 8.27038430846463e-15 -5.560592982367295e-16 8.489306246041634e-15 -5.707785149547599e-16 -0.04597514924483944 -0.9989425837614065
103500000.0 -0.0929648518209886 -0.9956693910761251 8.264820992749798e-15 -5.957967421369514e-16 8.483595666087291e-15 -6.115678323699903e-16 -0.05080642439280264 -0.9987085196594745
104000000.0 -0.09774031125656255 -0.9952119530810863 8.258905790233363e-15 -6.352737996515058e-16 8.477523884680717e-15 -6.520898708187528e-16 -0.055612056972626014 -0.9984524521073966
104500000.0 -0.10248840266408392 -0.9947341993313413 8.252644969526242e-15 -6.74488839785867e-16 8.471097336366643e-15 -6.923429561331402e-16 -0.060392084505038524 -0.998174732263413
105000000.0 -0.10720919821118119 -0.9942364848560503 8.246044743248881e-15 -7.134403354239315e-16 8.464322398217238e-15 -7.323255207733906e-16 -0.06514654746740897 -0.997875707366943
105500000.0 -0.11190277264894967 -0.9937191602628367 8.239111267292166e-15 -7.521268608913373e-16 8.457205389073432e-15 -7.720361013266952e-16 -0.06987548920995053 -0.9975557207533172
106000000.0 -0.116569203226151 -0.9931825717657455 8.231850640133772e-15 -7.905470895495906e-16 8.449752568843192e-15 -8.114733360376681e-16 -0.07457895587340378 -0.9972151118694668
106500000.0 -0.12120856960515776 -0.9926270612139645 8.224268902208356e-15 -8.286997914214069e-16 8.441970137855043e-15 -8.506359623708001e-16 -0.07925699630819304 -0.9968542162905282
107000000.0 -0.1258209537796204 -0.9920529661212584 8.216372035329803e-15 -8.665838308476571e-16 8.433864236265006e-15 -8.895228146053899e-16 -0.08390966199504385 -0.9964733657373275
107500000.0 -0.13040643999384582 -0.9914606196960782 8.20816596216389e-15 -9.04198164176281e-16 8.425440943515291e-15 -9.281328214632982e-16 -0.08853700696705057 -0.9960728880947
108000000.0 -0.13496511466385785 -0.990850350872306 8.199656545749648e-15 -9.415418374834873e-16 8.416706277843021e-15 -9.66465003769813e-16 -0.09313908773317431 -0.995653107430611
108500000.0 -0.1394970663001216 -0.9902224843405949 8.190849589067935e-15 -9.786139843274888e-16 8.407666195837382e-15 -1.0045184721479234e-15 -0.09771596320317262 -0.9952143440160397
109000000.0 -0.14400238543191196 -0.9895773405802697 8.181750834655537e-15 -1.015413823535031e-15 8.398326592043474e-15 -1.042292424746253e-15 -0.10226769461393605 -0.9947569143455857
109500000.0 -0.1484811645333043 -0.9889152358917492 8.172365964263227e-15 -1.0519406570208632e-15 8.38869329861137e-15 -1.0797861450008276e-15 -0.10679434545722209 -0.9942811311587704
110000000.0 -0.15293349795076783 -0.9882364824294546 8.16270059855641e-15 -1.0881938676403444e-15 8.378772084988783e-15 -1.1169989994308238e-15 -0.11129598140877292 -0.993787303461992
110500000.0 -0.15735948183233422 -0.9875413882351761 8.152760296856693e-15 -1.1241729170752822e-15 8.368568657655847e-15 -1.1539304354684502e-15 -0.11577267025880593 -0.9932757365511079
111000000.0 -0.16175921405832272 -0.986830257271854 8.14255055692302e-15 -1.1598773437530782e-15 8.358088659900394e-15 -1.1905799793230143e-15 -0.12022448184385477 -0.9927467320345992
111500000.0 -0.16613279417360463 -0.986103389457754 8.132076814770921e-15 -1.1953067607992645e-15 8.347337671632508e-15 -1.2269472338792484e-15 -0.12465148797995519 -0.9922005878573059
112000000.0 -0.17048032332137614 -0.9853610807009983 8.121344444528523e-15 -1.230460854023416e-15 8.336321209236629e-15 -1.2630318766299193e-15 -0.12905376239715205 -0.9916375983246801
112500000.0 -0.174801904178426 -0.9846036229344256 8.110358758327894e-15 -1.265339379938453e-15 8.325044725460098e-15 -1.2988336576427079e-15 -0.13343138067532012 -0.9910580541275461
113000000.0 -0.17909764089186597 -0.9838313041507515 8.099125006230434e-15 -1.2999421638133007e-15 8.313513609336538e-15 -1.3343523975612995e-15 -0.13778442018127812 -0.9904622423673249
113500000.0 -0.18336763901731334 -0.9830444084379995 8.08764837618505e-15 -1.3342690977588444e-15 8.30173318614289e-15 -1.3695879856406957e-15 -0.14211296000718257 -0.989850446581703
114000000.0 -0.18761200545849493 -0.9822432160151792 8.075933994017741e-15 -1.3683201388470753e-15 8.289708717388794e-15 -1.4045403778165573e-15 -0.14641708091018474 -0.9892229467707169
114500000.0 -0.1918308484082516 -0.9814280032681819 8.063986923451444e-15 -1.402095307263345e-15 8.277445400836924e-15 -1.4392095948085514e-15 -0.15069686525333553 -0.988580019423222
115000000.0 -0.19602427729092414 -0.9805990427858733 8.051812166154983e-15 -1.4355946844915737e-15 8.264948370553203e-15 -1.473595720257527e-15 -0.15495239694771898 -0.9879219375437296
115500000.0 -0.20019240270609567 -0.9797566033963537 8.039414661819755e-15 -1.4688184115322925e-15 8.252222696985572e-15 -1.5076988988963824e-15 -0.15918376139580656 -0.9872489706795762
116000000.0 -0.2043353363736685 -0.9789009502033694 8.026799288263246e-15 -1.5017666871533114e-15 8.239273387070218e-15 -1.5415193347544301e-15 -0.16339104543600472 -0.9865613849484124
116500000.0 -0.20845319108025667 -0.9780323446228444 8.013970861558065e-15 -1.5344397661728486e-15 8.226105384364009e-15 -1.5750572893950718e-15 -0.1675743372883874 -0.9858594430659765
117000000.0 -0.21254608062686478 -0.9771510444195195 8.000934136185504e-15 -1.5668379577748932e-15 8.212723569202182e-15 -1.6083130801865821e-15 -0.17173372650159446 -0.9851434043741425
117500000.0 -0.2166141197778415 -0.9762573037436753 7.98769380521262e-15 -1.5989616238566246e-15 8.199132758880014e-15 -1.6412870786057744e-15 -0.17586930390088126 -0.9844135248692084
118000000.0 -0.22065742421107676 -0.9753513731679128 7.974254500491617e-15 -1.630811177407573e-15 8.18533770785757e-15 -1.6739797085742423e-15 -0.17998116153729674 -0.9836700572304138
118500000.0 -0.22467611046942454 -0.9744334997239837 7.960620792880742e-15 -1.6623870809203164e-15 8.171343107986411e-15 -1.7063914448270314e-15 -0.18406939263798267 -0.9829132508486619
119000000.0 -0.22867029591333432 -0.9735039269396442 7.94679719248562e-15 -1.6936898448324749e-15 8.157153588757298e-15 -1.7385228113133339e-15 -0.1881340915575705 -0.9821433518554242
119500000.0 -0.23264009867465957 -0.9725628948755164 7.932788148920037e-15 -1.7247200259996516e-15 8.142773717567923e-15 -1.7703743796290551e-15 -0.1921753537306613 -0.9813606031518154
120000000.0 -0.23658563761162926 -0.9716106401619419 7.918598051585364e-15 -1.755478226199071e-15 8.128208000009684e-15 -1.801946767480812e-15 -0.19619327562537575 -0.9805652444378116
120500000.0 -0.24050703226496692 -0.9706473960358095 7.904231229967619e-15 -1.7859650906636283e-15 8.113460880172647e-15 -1.8332406371811985e-15 -0.20018795469794992 -0.9797575122416012
121000000.0 -0.24440440281511744 -0.9696733923773436 7.889691953951384e-15 -1.8161813066459977e-15 8.098536740967744e-15 -1.864256694174862e-15 -0.20415948934836645 -0.9789376399490489
121500000.0 -0.24827787004058297 -0.9686888557468345 7.874984434149677e-15 -1.846127602012494e-15 8.083439904465402e-15 -1.8949956855951776e-15 -0.20810797887700747 -0.9781058578332547
122000000.0 -0.25212755527733133 -0.9676940094213028 7.860112822248991e-15 -1.8758047438663857e-15 8.068174632249697e-15 -1.9254583988510843e-15 -0.21203352344230106 -0.9772623930841927
122500000.0 -0.25595358037926774 -0.9666890734310769 7.845081211368699e-15 -1.905213537200287e-15 8.052745125787278e-15 -1.955645660243822e-15 -0.21593622401936027 -0.9764074698384178
123000000.0 -0.259756067679738 -0.9656742645962763 7.829893636434047e-15 -1.934354823577295e-15 8.037155526810246e-15 -1.9855583336131646e-15 -0.21981618235958522 -0.9755413092088195
123500000.0 -0.26353513995405686 -0.9646497965631856 7.814554074562035e-15 -1.963229479840525e-15 8.021409917712207e-15 -2.0151973190127735e-15 -0.22367350095122024 -0.9746641293144138
124000000.0 -0.26729092038302993 -0.963615879840506 7.79906644545937e-15 -1.991838416850692e-15 8.005512321956822e-15 -2.0445635514143893e-15 -0.22750828298084894 -0.9737761453101559
124500000.0 -0.27102353251745614 -0.9625727218354775 7.783434611831897e-15 -2.0201825782513777e-15 7.989466704498037e-15 -2.0736579994403843e-15 -0.23132063229580585 -0.9728775694167631
125000000.0 -0.27473310024359177 -0.961520526889855 7.767662379804762e-15 -2.0482629392615916e-15 7.973276972211357e-15 -2.1024816641243966e-15 -0.23511065336749826 -0.9719686109505323
125500000.0 -0.2784197477495507 -0.9604594963157356 7.751753499352713e-15 -2.0760805054953048e-15 7.956946974335577e-15 -2.1310355776995925e-15 -0.2388784512556124 -0.9710494763531465
126000000.0 -0.2820835994926335 -0.9593898284312166 7.73571166473978e-15 -2.103636311807537e-15 7.940480502924068e-15 -2.159320802414209e-15 -0.24262413157319587 -0.970120369221445
126500000.0 -0.28572478016755093 -0.958311718595888 7.719540514967913e-15 -2.130931421166652e-15 7.923881293305301e-15 -2.187338429374005e-15 -0.24634780045259927 -0.969181490337164
127000000.0 -0.2893434146755425 -0.9572253592461376 7.703243634233806e-15 -2.1579669235524643e-15 7.907153024551757e-15 -2.215089577411206e-15 -0.2500495645122575 -0.9682330376966228
127500000.0 -0.2929396280943526 -0.9561309399302701 7.686824552393427e-15 -2.1847439348797797e-15 7.89029931995678e-15 -2.2425753919795402e-15 -0.2537295308243023 -0.9672752065403515
128000000.0 -0.2965135456490636 -0.9550286473434291 7.670286745433692e-15 -2.2112635959470142e-15 7.873323747518703e-15 -2.269797044075022e-15 -0.25738780688298396 -0.9663081893826462
128500000.0 -0.3000652926837554 -0.9539186653623106 7.65363363595073e-15 -2.2375270714094554e-15 7.856229820431781e-15 -2.29675572918206e-15 -0.2610245005738956 -0.9653321760410496
129000000.0 -0.30359499463397965 -0.9528011750796667 7.63686859363423e-15 -2.263535548776849e-15 7.839020997583371e-15 -2.323452666244472e-15 -0.2646397201439751 -0.9643473536657412
129500000.0 -0.3071027770000346 -0.9516763548385906 7.619994935757371e-15 -2.289290237434848e-15 7.821700684056832e-15 -2.3498890966610655e-15 -0.26823357417228033 -0.9633539067688279
130000000.0 -0.3105887653210158 -0.9505443802665751 7.603015927671855e-15 -2.314792367690019e-15 7.804272231639638e-15 -2.3760662833053432e-15 -0.2718061715415163 -0.9623520172535328
130500000.0 -0.3140530851496337 -0.9494054243093395 7.585934783307596e-15 -2.3400431898379757e-15 7.786738939336324e-15 -2.401985509568979e-15 -0.2753576214103012 -0.9613418644432692
131000000.0 -0.3174958620277759 -0.9482596572644221 7.568754665676605e-15 -2.3650439732542646e-15 7.76910405388569e-15 -2.4276480784286414e-15 -0.27888803318616145 -0.9603236251105949
131500000.0 -0.3209172214628032 -0.9471072468145276 7.551478687380599e-15 -2.389796005507614e-15 7.751370770281853e-15 -2.453055311535757e-15 -0.2823975164992348 -0.9592974735060361
132000000.0 -0.32431728890455636 -0.9459483580606284 7.534109911122045e-15 -2.4143005914951873e-15 7.733542232298804e-15 -2.4782085483288865e-15 -0.28588618117667597 -0.9582635813867793
132500000.0 -0.327696189723069 -0.9447831535548157 7.516651350218058e-15 -2.438559052599446e-15 7.715621533017947e-15 -2.5031091451682572e-15 -0.2893541372177415 -0.9572221180452198
133000000.0 -0.3310540491869588 -0.9436117933328931 7.499105969116963e-15 -2.4625727258662387e-15 7.697611715358297e-15 -2.5277584744921102e-15 -0.2928014947695513 -0.9561732503373623
133500000.0 -0.3343909924424916 -0.9424344349467105 7.481476683917016e-15 -2.4863429632037546e-15 7.679515772608932e-15 -2.5521579239944402e-15 -0.29622836410350306 -0.9551171427110721
134000000.0 -0.3377071444932969 -0.9412512334962345 7.46376636288693e-15 -2.5098711306019428e-15 7.661336648963353e-15 -2.5763088958237574e-15 -0.2996348555923356 -0.95405395723416
134500000.0 -0.34100263018072563 -0.9400623416613535 7.445977826988051e-15 -2.5331586073720757e-15 7.643077240055382e-15 -2.600212805802515e-15 -0.30302107968781944 -0.95298385362231
135000000.0 -0.34427757416482985 -0.9388679097334088 7.428113850397532e-15 -2.556206785406038e-15 7.62474039349629e-15 -2.623871082666783e-15 -0.30638714689907326 -0.9519069892668327
135500000.0 -0.3475321009059581 -0.9376680856464569 7.41017716103252e-15 -2.5790170684549595e-15 7.606328909412791e-15 -2.6472851673258264e-15 -0.30973316777147886 -0.9508235192622472
136000000.0 -0.3507663346469426 -0.9364630150082538 7.39217044107485e-15 -2.6015908714269433e-15 7.587845540985655e-15 -2.6704565121411873e-15 -0.3130592528661974 -0.9497335964336834
136500000.0 -0.35398039939587417 -0.9352528411309626 7.374096327496031e-15 -2.623929619703371e-15 7.569292994988572e-15 -2.693386580224928e-15 -0.31636551274026353 -0.9486373713641003
137000000.0 -0.3571744189094436 -0.934037705061579 7.355957412582243e-15 -2.6460347484735128e-15 7.550673932327067e-15 -2.7160768447566344e-15 -0.3196520579272496 -0.9475349924213219
137500000.0 -0.36034851667684503 -0.9328177456120766 7.337756244459044e-15 -2.6679077020871493e-15 7.531990968577083e-15 -2.73852878831887e-15 -0.3229189989184914 -0.946426605784875
138000000.0 -0.3635028159042154 -0.9315930993892695 7.319495327615647e-15 -2.6895499334246954e-15 7.51324667452312e-15 -2.7607439022506415e-15 -0.3261664461448553 -0.9453123554726423
138500000.0 -0.366637439499613 -0.9303639008243859 7.301177123428319e-15 -2.7109629032846315e-15 7.494443576695539e-15 -2.7827236860186365e-15 -0.3293945099590454 -0.9441923833673095
139000000.0 -0.3697525100585093 -0.9291302822023572 7.282804050682896e-15 -2.73214807978782e-15 7.475584157906855e-15 -2.8044696466057316e-15 -0.3326033006184315 -0.9430668292426178
139500000.0 -0.37284814984978965 -0.9278923736908224 7.264378486096081e-15 -2.753106937798382e-15 7.456670857786859e-15 -2.8259832979165754e-15 -0.33579292826838886 -0.9419358307894126
140000000.0 -0.37592448080224744 -0.9266503033688387 7.245902764835263e-15 -2.773840958360812e-15 7.437706073316195e-15 -2.8472661601997732e-15 -0.33896350292614175 -0.9407995236414821
140500000.0 -0.3789816244915609 -0.9254041972553061 7.227379181036789e-15 -2.7943516281529905e-15 7.418692159358346e-15 -2.8683197594864485e-15 -0.34211513446509706 -0.9396580414011945
141000000.0 -0.38201970212774095 -0.9241541793371016 7.208809988322389e-15 -2.8146404389547627e-15 7.399631429189746e-15 -2.8891456270447413e-15 -0.3452479325996564 -0.9385115156649187
141500000.0 -0.3850388345430389 -0.922900371596923 7.190197400313646e-15 -2.8347088871317803e-15 7.38052615502783e-15 -2.9097452988499738e-15 -0.3483620068705016 -0.9373600760482369
142000000.0 -0.3880391421803012 -0.9216428940408405 7.171543591144239e-15 -2.8545584731342567e-15 7.361378568556874e-15 -2.9301203150701655e-15 -0.3514574666303348 -0.9362038502109393
142500000.0 -0.3910207450817637 -0.9203818647255617 7.15285069596992e-15 -2.8741907010103468e-15 7.342190861451477e-15 -2.9502722195665033e-15 -0.3545344210300719 -0.9350429638818057
143000000.0 -0.3939837628782705 -0.9191173997854019 7.134120811476015e-15 -2.893607077933831e-15 7.322965185897442e-15 -2.9702025594085503e-15 -0.3575929790054725 -0.9338775408831672
143500000.0 -0.3969283147789111 -0.9178496134589662 7.115355996382213e-15 -2.9128091137457966e-15 7.303703655109976e-15 -2.989912884403773e-15 -0.36063324926420315 -0.9327077031552506
144000000.0 -0.39985451956106033 -0.9165786181155404 7.096558271944665e-15 -2.931798320510032e-15 7.28440834384908e-15 -3.009404746641179e-15 -0.3636553402733148 -0.9315335707803019
144500000.0 -0.4027624955608191 -0.9153045242811929 7.077729622455127e-15 -2.9505762120817868e-15 7.265081288931881e-15 -3.0286797000486595e-15 -0.36665936024713874 -0.930355262006487
145000000.0 -0.40565236066383553 -0.9140274406645882 7.058871995737126e-15 -2.969144303689684e-15 7.245724489741934e-15 -3.0477392999638223e-15 -0.3696454171355738 -0.929172893271574
145500000.0 -0.4085242322965043 -0.9127474741825098 7.039987303638904e-15 -2.987504111530404e-15 7.226339908735226e-15 -3.0665851027179754e-15 -0.3726136186127757 -0.9279865792263879
146000000.0 -0.4113782274175352 -0.9114647299850974 7.021077422523148e-15 -3.0056571523759636e-15 7.206929471942877e-15 -3.0852186652329754e-15 -0.3755640720662248 -0.926796432758044
146500000.0 -0.41421446250987537 -0.9101793114807956 7.002144193753354e-15 -3.023604943193175e-15 7.187495069470357e-15 -3.103641544630641e-15 -0.3784968845861666 -0.9256025650129576
147000000.0 -0.41703305357298043 -0.9088913203610186 6.9831894241767076e-15 -3.041349000775146e-15 7.168038555993149e-15 -3.121855297854488e-15 -0.3814121629554233 -0.9244050854196257
147500000.0 -0.41983411611542576 -0.9076008566245295 6.964214886603418e-15 -3.058890841384466e-15 7.148561751248803e-15 -3.1398614813034643e-15 -0.3843100136395565 -0.9232041017111894
148000000.0 -0.4226177651478505 -0.9063080186015328 6.945222320282394e-15 -3.076231980407829e-15 7.129066440525162e-15 -3.1576616504774476e-15 -0.38719054277738457 -0.9219997199477635
148500000.0 -0.42538411517621666 -0.905012902977492 6.926213431373224e-15 -3.0933739320218455e-15 7.109554375144863e-15 -3.175257359634187e-15 -0.390053856171838 -0.9207920445385477
149000000.0 -0.4281332801953894 -0.9037156048166571 6.907189893414304e-15 -3.1103182088697757e-15 7.0900272729458585e-15 -3.1926501614575025e-15 -0.39290005928114896 -0.9195811782637082
149500000.0 -0.43086537368301747 -0.9024162175853189 6.888153347787152e-15 -3.127066321748915e-15 7.0704868187579945e-15 -3.209841606736388e-15 -0.3957292572103625 -0.9183672222960348
150000000.0 -0.4335805085937131 -0.9011148331747834 6.869105404176761e-15 -3.143619779308447e-15 7.050934664875557e-15 -3.226833244054848e-15 -0.39854155470317093 -0.9171502762223754
150500000.0 -0.43627879735352093 -0.8998115419240661 6.8500476410279045e-15 -3.159980087757391e-15 7.031372431525701e-15 -3.243626619492146e-15 -0.4013370561340529 -0.9159304380648413
151000000.0 -0.43896035185466753 -0.8985064326423192 6.830981605997498e-15 -3.176148750582576e-15 7.011801707332726e-15 -3.260223276333291e-15 -0.4041158655007168 -0.9147078043017927
151500000.0 -0.4416252834505877 -0.8971995926309753 6.811908816402753e-15 -3.1921272682762346e-15 6.9922240497781186e-15 -3.276624754789427e-15 -0.4068780864168399 -0.9134824698885966
152000000.0 -0.4442737029512134 -0.8958911077056281 6.792830759665234e-15 -3.2079171380731003e-15 6.9726409856563735e-15 -3.2928325917279756e-15 -0.4096238221050928 -0.9122545282781638
152500000.0 -0.446905720618526 -0.8945810622176371 6.773748893750719e-15 -3.223519853696763e-15 6.953054011526472e-15 -3.3088483204122654e-15 -0.41235317539044936 -0.9110240714412616
153000000.0 -0.44952144616235934 -0.8932695390754694 6.7546646476048116e-15 -3.2389369051149874e-15 6.933464594159059e-15 -3.3246734702503847e-15 -0.4150662486937645 -0.9097911898866056
153500000.0 -0.4521209887364478 -0.8919566197657691 6.735579421584302e-15 -3.2541697783038605e-15 6.913874170979181e-15 -3.340309566553078e-15 -0.4177631440256252 -0.9085559726807283
154000000.0 -0.45470445693471473 -0.8906423843741696 6.716494587884229e-15 -3.2692199550205162e-15 6.894284150504698e-15 -3.3557581303004703e-15 -0.42044396298045805 -0.9073185074676295
154500000.0 -0.45727195878779237 -0.8893269116058365 6.697411490960609e-15 -3.284088912584225e-15 6.874695912780153e-15 -3.3710206779173354e-15 -0.42310880673089324 -0.9060788804882053
155000000.0 -0.45982360175976494 -0.8880102788057563 6.678331447948828e-15 -3.2987781236656365e-15 6.855110809806298e-15 -3.3860987210567862e-15 -0.4257577760223765 -0.9048371765994585
155500000.0 -0.46235949274513644 -0.8866925619787616 6.6592557490776725e-15 -3.313289056083992e-15 6.8355301659650254e-15 -3.4009937663920995e-15 -0.4283909711680207 -0.9035934792934929
156000000.0 -0.4648797380660079 -0.8853738358093035 6.640185658078966e-15 -3.327623172612098e-15 6.815955278439882e-15 -3.4157073154165353e-15 -0.43100849204369573 -0.9023478707162884
156500000.0 -0.46738444346946234 -0.8840541736809688 6.6211224125928006e-15 -3.3417819307888326e-15 6.796387417632024e-15 -3.4302408642508943e-15 -0.433610438083345 -0.9011004316862632
157000000.0 -0.4698737141251508 -0.8827336476957452 6.602067224568374e-15 -3.3557667827390788e-15 6.776827827571655e-15 -3.444595903458642e-15 -0.43619690827453006 -0.8998512417126183
157500000.0 -0.4723476546230765 -0.8814123286930351 6.583021280660396e-15 -3.3695791750007754e-15 6.757277726324933e-15 -3.4587739178684435e-15 -0.43876800115418935 -0.8986003790134731
158000000.0 -0.4748063689715649 -0.8800902862684249 6.563985742621093e-15 -3.383220548359023e-15 6.737738306396359e-15 -3.4727763864038204e-15 -0.44132381480460925 -0.8973479205337843
158500000.0 -0.4772499605954219 -0.8787675887922065 6.544961747687757e-15 -3.3966923376869773e-15 6.718210735126547e-15 -3.4866047819198676e-15 -0.4438644468496068 -0.8960939419630579
159000000.0 -0.4796785323342684 -0.8774443034276548 6.525950408965864e-15 -3.409995971793396e-15 6.698696155085548e-15 -3.5002605710467475e-15 -0.4463899944509101 -0.8948385177528494
159500000.0 -0.48209218644105056 -0.876120496149067 6.5069528158078236e-15 -3.4231328732766414e-15 6.6791956844615544e-15 -3.513745214039845e-15 -0.44890055430473336 -0.8935817211340569
160000000.0 -0.48449102458071797 -0.8747962317595602 6.4879700341872204e-15 -3.4361044583850167e-15 6.659710417445121e-15 -3.5270601646363873e-15 -0.45139622263855006 -0.8923236241340071
160500000.0 -0.48687514782906394 -0.8734715739086345 6.469003107068725e-15 -3.4489121368831998e-15 6.6402414246087776e-15 -3.540206869918342e-15 -0.45387709520804437 -0.8910642975933374
161000000.0 -0.4892446566717281 -0.8721465851095005 6.450053054773512e-15 -3.461557311924646e-15 6.620789753282222e-15 -3.553186770181473e-15 -0.4563432672942497 -0.8898038111826722
161500000.0 -0.49159965100334946 -0.870821326756175 6.4311208753403715e-15 -3.4740413799298522e-15 6.60135642792291e-15 -3.5660012988103486e-15 -0.4587948337008611 -0.8885422334190982
162000000.0 -0.4939402301268714 -0.8694958591403489 6.412207544882337e-15 -3.48636573047021e-15 6.581942450482164e-15 -3.578651882159127e-15 -0.4612318887517187 -0.8872796316824374
162500000.0 -0.4962664927529894 -0.8681702414680238 6.3933140179390265e-15 -3.498531746157416e-15 6.5625488007668244e-15 -3.591139939438055e-15 -0.463654526288461 -0.886016072231324
163000000.0 -0.4985785369997411 -0.8668445318759287 6.374441227824577e-15 -3.5105408025382163e-15 6.543176436796406e-15 -3.6034668826054056e-15 -0.46606283966833784 -0.8847516202190789
163500000.0 -0.5008764603922294 -0.8655187874477084 6.35559008697124e-15 -3.5223942679943386e-15 6.523826295155771e-15 -3.615634116264777e-15 -0.46845692176218223 -0.8834863397093926
164000000.0 -0.5031603598624816 -0.8641930642298963 6.336761487268677e-15 -3.5340935036475417e-15 6.504499291343435e-15 -3.6276430375676225e-15 -0.47083686495253885 -0.8822202936918107
164500000.0 -0.5054303317494333 -0.8628674172476664 6.31795630039894e-15 -3.545639863269535e-15 6.485196320115381e-15 -3.639495036120787e-15 -0.4732027611319357 -0.8809535440970268
165000000.0 -0.5076864717990335 -0.8615419005203692 6.29917537816716e-15 -3.557034693196726e-15 6.4659182558245256e-15 -3.651191493898994e-15 -0.47555470170131003 -0.8796861518119847
165500000.0 -0.5099288751644764 -0.8602165670768563 6.280419552827994e-15 -3.568279332249609e-15 6.446665952755794e-15 -3.6627337851621e-15 -0.4778927775685661 -0.8784181766947908
166000000.0 -0.5121576364065423 -0.8588914689705934 6.261689637407823e-15 -3.579375111656678e-15 6.427440245456855e-15 -3.6741232763770025e-15 -0.4802170791472797 -0.8771496775894382
166500000.0 -0.514372849494054 -0.857566657294561 6.242986426022752e-15 -3.590323354982749e-15 6.408241949064531e-15 -3.685361326144057e-15 -0.4825276963555274 -0.8758807123403438
167000000.0 -0.5165746078044405 -0.8562421821959536 6.224310694192399e-15 -3.6011253780615134e-15 6.389071859626907e-15 -3.69644928512785e-15 -0.4848247186148518 -0.8746113378067022
167500000.0 -0.5187630041244053 -0.8549180928906712 6.2056631991495726e-15 -3.611782488932335e-15 6.3699307544211785e-15 -3.70738849599231e-15 -0.4871082348493524 -0.8733416098766555
168000000.0 -0.520938130650698 -0.8535944376776109 6.187044680145746e-15 -3.6222959877809505e-15 6.350819392267252e-15 -3.7181802933398595e-15 -0.4893783334848932 -0.8720715834812808
168500000.0 -0.5231000789909795 -0.8522712639527575 6.168455858752527e-15 -3.632667166884197e-15 6.331738513837152e-15 -3.72882600365466e-15 -0.491635102448437 -0.8708013126084014
169000000.0 -0.5252489401647896 -0.8509486182230775 6.149897439158944e-15 -3.642897310558477e-15 6.312688841960208e-15 -3.739326945249731e-15 -0.49387862916749037 -0.8695308503162152
169500000.0 -0.527384804604596 -0.8496265461202186 6.1313701084647876e-15 -3.652987695111936e-15 6.293671081924151e-15 -3.74968442821784e-15 -0.49610900056966123 -0.8682602487467521
170000000.0 -0.5295077621569413 -0.8483050924140135 6.112874536969888e-15 -3.662939588800214e-15 6.274685921772031e-15 -3.759899754386101e-15 -0.4983263030823257 -0.8669895591391525
170500000.0 -0.5316179020836663 -0.8469843010257989 6.094411378459408e-15 -3.672754251785672e-15 6.2557340325951e-15 -3.769974217274116e-15 -0.5005306226324018 -0.8657188318427756
171000000.0 -0.5337153130632255 -0.8456642150415395 6.075981270485227e-15 -3.6824329360999975e-15 6.236816068821601e-15 -3.7799091020555874e-15 -0.5027220446462235 -0.8644481163301361
171500000.0 -0.5358000831920718 -0.844344876724771 6.057584834643377e-15 -3.6919768856100635e-15 6.217932668501582e-15 -3.78970568552327e-15 -0.5049006540495145 -0.8631774612096709
172000000.0 -0.5378722999861247 -0.8430263275293579 6.039222676847606e-15 -3.701387335986976e-15 6.19908445358769e-15 -3.79936523605722e-15 -0.5070665352674596 -0.8619069142383382
172500000.0 -0.5399320503823093 -0.8417086081120685 6.0208953875991205e-15 -3.710665514678185e-15 6.180272030212039e-15 -3.808889013596137e-15 -0.5092197722248675 -0.8606365223340537
173000000.0 -0.5419794207401676 -0.8403917583449714 6.002603542252458e-15 -3.719812640882577e-15 6.161495988959143e-15 -3.818278269611823e-15 -0.5113604483464262 -0.8593663315879567
173500000.0 -0.5440144968435372 -0.8390758173276553 5.984347701277642e-15 -3.728829925528456e-15 6.142756905134993e-15 -3.8275342470865625e-15 -0.5134886465570443 -0.8580963872765196
174000000.0 -0.5460373639022965 -0.8377608233992748 5.966128410518566e-15 -3.737718571254333e-15 6.124055339032293e-15 -3.836658180493419e-15 -0.515604449282279 -0.8568267338734931
174500000.0 -0.5480481065541731 -0.836446814150419 5.9479462014476574e-15 -3.7464797723924e-15 6.105391836191863e-15 -3.8456512957792576e-15 -0.5177079384488438 -0.8555574150616942
175000000.0 -0.5500468088666124 -0.8351338264348156 5.9298015914169274e-15 -3.75511471495466e-15 6.086766927660316e-15 -3.854514810350517e-15 -0.5197991954851984 -0.8542884737446366
175500000.0 -0.5520335543387072 -0.8338218963808601 5.911695083905282e-15 -3.763624576621573e-15 6.068181130243949e-15 -3.863249933061559e-15 -0.5218783013222152 -0.8530199520580036
176000000.0 -0.5540084259031806 -0.8325110594029852 5.8936271687623656e-15 -3.772010526733196e-15 6.049634946759017e-15 -3.871857864205547e-15 -0.5239453363939197 -0.8517518913809717
176500000.0 -0.5559715059284234 -0.8312013502128596 5.875598322448741e-15 -3.7802737262826455e-15 6.0311288662782655e-15 -3.8803397955077735e-15 -0.5260003806383023 -0.8504843323473752
177000000.0 -0.5579228762205878 -0.8298928028304298 5.8576090082725835e-15 -3.788415327911938e-15 6.012663364373915e-15 -3.8886969101213694e-15 -0.5280435134982036 -0.8492173148567288
177500000.0 -0.5598626180257236 -0.8285854505947968 5.839659676622887e-15 -3.796436475909993e-15 5.994238903357024e-15 -3.896930382625259e-15 -0.5300748139222622 -0.8479508780850924
178000000.0 -0.5617908120319675 -0.8272793261749398 5.821750765199221e-15 -3.8043383062128296e-15 5.975855932513318e-15 -3.90504137902435e-15 -0.5320943603659313 -0.8466850604957964
178500000.0 -0.5637075383717761 -0.8259744615802793 5.803882699238057e-15 -3.812121946405842e-15 5.9575148883355366e-15 -3.913031056751878e-15 -0.5341022307925587 -0.8454198998500169
179000000.0 -0.5656128766242027 -0.8246708881710901 5.786055891735753e-15 -3.819788515728056e-15 5.9392161947522884e-15 -3.9209005646738e-15 -0.5360985026745242 -0.8441554332172085
179500000.0 -0.5675069058172157 -0.8233686366687586 5.768270743668164e-15 -3.827339125078386e-15 5.920960263353497e-15 -3.928651043095165e-15 -0.5380832529944397 -0.8428916969853969
180000000.0 -0.5693897044300591 -0.822067737165892 5.750527644206957e-15 -3.8347748770237e-15 5.902747493612433e-15 -3.936283623768444e-15 -0.5400565582464034 -0.8416287268713258
180500000.0 -0.5712613503956472 -0.8207682191362807 5.7328269709326816e-15 -3.8420968658087745e-15 5.884578273104427e-15 -3.943799429903713e-15 -0.5420184944373111 -0.8403665579304729
181000000.0 -0.5731219211029986 -0.8194701114447114 5.715169090044609e-15 -3.849306177367937e-15 5.8664529777222595e-15 -3.9511995761806164e-15 -0.5439691370882185 -0.8391052245669185
181500000.0 -0.5749714933997053 -0.818173442356639 5.697554356567376e-15 -3.8564038893384204e-15 5.848371971888278e-15 -3.958485168762083e-15 -0.5459085612357538 -0.8378447605430906
182000000.0 -0.5768101435944323 -0.8168782395477129 5.6799831145544544e-15 -3.863391071075356e-15 5.830335608763248e-15 -3.965657305309706e-15 -0.5478368414335834 -0.8365851989893646
182500000.0 -0.5786379474594501 -0.8155845301131666 5.662455697288548e-15 -3.8702687836683285e-15 5.812344230452069e-15 -3.972717075000726e-15 -0.5497540517539206 -0.835326572413537
183000000.0 -0.5804549802331977 -0.814292340577067 5.644972427478901e-15 -3.8770380799594265e-15 5.794398168206283e-15 -3.979665558546585e-15 -0.55166026578908 -0.8340689127101677
183500000.0 -0.5822613166228731 -0.813001696901426 5.627533617455543e-15 -3.8837000045627734e-15 5.776497742623483e-15 -3.9865038282129655e-15 -0.5535555566530805 -0.8328122511697928
184000000.0 -0.5840570308070503 -0.8117126244951794 5.610139569360549e-15 -3.8902555938854826e-15 5.75864326384362e-15 -3.993232947841274e-15 -0.5554399969832857 -0.8315566184880063
184500000.0 -0.5858421964383229 -0.8104251482230309 5.592790575336328e-15 -3.896705876149887e-15 5.740835031742291e-15 -3.999853972871503e-15 -0.5573136589420847 -0.8303020447744215
185000000.0 -0.5876168866459694 -0.8091392924141664 5.575486917711016e-15 -3.9030518714171656e-15 5.723073336121014e-15 -4.006367950366443e-15 -0.5591766142186156 -0.8290485595615048
185500000.0 -0.5893811740386452 -0.807855080870838 5.558228869180891e-15 -3.9092945916121446e-15 5.7053584568945035e-15 -4.012775919037174e-15 -0.561028934030523 -0.8277961918132841
186000000.0 -0.5911351307070909 -0.806572536876821 5.5410166929900274e-15 -3.915435040549342e-15 5.687690664275058e-15 -4.019078909269764e-15 -0.5628706891257539 -0.8265449699339409
186500000.0 -0.5928788282268651 -0.8052916832057434 5.5238506431070745e-15 -3.921474213960152e-15 5.670070218954026e-15 -4.025277943153217e-15 -0.5647019497843848 -0.8252949217762786
187000000.0 -0.5946123376610928 -0.8040125421292944 5.506730964399263e-15 -3.927413099521152e-15 5.652497372280417e-15 -4.031374034508475e-15 -0.5665227858204872 -0.8240460746500735
187500000.0 -0.5963357295632334 -0.8027351354253067 5.4896578928036595e-15 -3.933252676883435e-15 5.634972366436698e-15 -4.037368188918585e-15 -0.5683332665840163 -0.8227984553303082
188000000.0 -0.5980490739798643 -0.8014594843857216 5.472631655495738e-15 -3.9389939177030286e-15 5.617495434611801e-15 -4.043261403759872e-15 -0.57013346096274 -0.8215520900652908
188500000.0 -0.59975244045348 -0.80018560982443 5.455652471055204e-15 -3.944637785672214e-15 5.600066801171371e-15 -4.049054668234126e-15 -0.5719234373841877 -0.8203070045846584
189000000.0 -0.6014458980253035 -0.7989135320850037 5.438720549629268e-15 -3.950185236551867e-15 5.582686681825339e-15 -4.0547489634017694e-15 -0.5737032638176336 -0.8190632241072691
189500000.0 -0.6031295152381163 -0.7976432710483019 5.421836093093238e-15 -3.9556372182046135e-15 5.565355283792764e-15 -4.060345262215912e-15 -0.5754730077761027 -0.8178207733489812
190000000.0 -0.604803360139092 -0.7963748461399717 5.404999295208563e-15 -3.960994670628907e-15 5.5480728059640824e-15 -4.065844529557319e-15 -0.5772327363184022 -0.8165796765303249
190500000.0 -0.6064675002826492 -0.7951082763378301 5.388210341778373e-15 -3.966258525993892e-15 5.530839439060742e-15 -4.071247722270199e-15 -0.5789825160511777 -0.8153399573840642
191000000.0 -0.6081220027333091 -0.7938435801791366 5.371469410800438e-15 -3.971429708675061e-15 5.5136553657922165e-15 -4.076555789198813e-15 -0.5807224131309932 -0.8141016391626519
191500000.0 -0.6097669340685644 -0.7925807757677592 5.354776672617742e-15 -3.9765091352906706e-15 5.496520761010564e-15 -4.081769671224837e-15 -0.5824524932664307 -0.8128647446455768
192000000.0 -0.6114023603817558 -0.7913198807812284 5.338132290066564e-15 -3.9814977147388525e-15 5.479435791862447e-15 -4.086890301305467e-15 -0.5841728217202111 -0.811629296146613
192500000.0 -0.6130283472849559 -0.7900609124776872 5.321536418622178e-15 -3.986396348235411e-15 5.462400617938645e-15 -4.091918604512228e-15 -0.5858834633113359 -0.8103953155209589
193000000.0 -0.6146449599118591 -0.7888038877027349 5.304989206542162e-15 -3.991205929352271e-15 5.445415391421219e-15 -4.096855498070418e-15 -0.5875844824172456 -0.8091628241722785
193500000.0 -0.6162522629206791 -0.7875488228961693 5.288490795007422e-15 -3.995927344056547e-15 5.428480257228206e-15 -4.10170189139922e-15 -0.5892759429759962 -0.8079318430596423
194000000.0 -0.6178503204970468 -0.7862957340986255 5.272041318260834e-15 -4.000561470750179e-15 5.411595353155975e-15 -4.10645868615239e-15 -0.590957908488454 -0.8067023927043678
194500000.0 -0.6194391963569176 -0.7850446369581134 5.255640903743695e-15 -4.005109180310137e-15 5.3947608100192655e-15 -4.111126776259523e-15 -0.5926304420205017 -0.8054744931967646
195000000.0 -0.6210189537494777 -0.7837955467364589 5.2392896722298566e-15 -4.009571336129132e-15 5.377976751788882e-15 -4.1157070479678435e-15 -0.5942936062052644 -0.8042481642027798
195500000.0 -0.6225896554600538 -0.7825484783156449 5.222987737957725e-15 -4.0139487941568646e-15 5.361243295727193e-15 -4.120200379884547e-15 -0.5959474632453459 -0.8030234249705528
196000000.0 -0.6241513638130276 -0.781303446204058 5.206735208760015e-15 -4.018242402941685e-15 5.344560552521307e-15 -4.124607643019553e-15 -0.5975920749150769 -0.8018002943368712
196500000.0 -0.6257041406747466 -0.7800604645426386 5.1905321861913984e-15 -4.022453003672744e-15 5.32792862641411e-15 -4.128929700828786e-15 -0.5992275025627808 -0.8005787907335371
197000000.0 -0.6272480474564371 -0.7788195471109384 5.1743787656540435e-15 -4.026581430222532e-15 5.31134761533312e-15 -4.1331674092578315e-15 -0.6008538071130426 -0.7993589321936441
197500000.0 -0.6287831451171204 -0.777580707333086 5.158275036521031e-15 -4.030628509189821e-15 5.2948176110171785e-15 -4.13732161678602e-15 -0.6024710490689951 -0.7981407363577582
198000000.0 -0.630309494166522 -0.7763439582836611 5.142221082257744e-15 -4.03459505994297e-15 5.2783386991410385e-15 -4.141393164470874e-15 -0.6040792885146122 -0.7969242204800154
198500000.0 -0.6318271546679844 -0.7751093126934798 5.126216980541238e-15 -4.038481894663585e-15 5.261910959437916e-15 -4.145382885992916e-15 -0.6056785851170086 -0.7957094014341283
199000000.0 -0.633336186241374 -0.7738767829552917 5.110262803377578e-15 -4.042289818390465e-15 5.245534465819929e-15 -4.149291607700803e-15 -0.6072689981287525 -0.7944962957193074
199500000.0 -0.6348366480659889 -0.7726463811293878 5.094358617217263e-15 -4.0460196290638985e-15 5.229209286496544e-15 -4.153120148656767e-15 -0.6088505863901812 -0.7932849194660974
200000000.0 -0.6363285988834608 -0.7714181189491285 5.078504483068654e-15 -4.049672117570179e-15 5.212935484091058e-15 -4.156869320682332e-15 -0.6104234083317253 -0.7920752884421278
