! Created with skrf 2.0.1 (http://scikit-rf.org).
# Hz S RI R 50.0 
!freq ReS11 ImS11 ReS12 ImS12 ReS13 ImS13
! ReS14 ImS14
! ReS21 ImS21 ReS22 ImS22 ReS23 ImS23
! ReS24 ImS24
! ReS31 ImS31 ReS32 ImS32 ReS33 ImS33
! ReS34 ImS34
! ReS41 ImS41 ReS42 ImS42 ReS43 ImS43
! ReS44 ImS44
!
500000.0 0.9999335438568451 -0.009680756031457056 -1.0214348404449689e-05 0.0009249229360273202 3.83352457796511e-05 0.004377916547715085 3.833524577964896e-05 0.004377916547715254
 -1.021434840444968e-05 0.00092492293602732 0.999933543856845 -0.009680756031454886 3.833524577964774e-05 0.004377916547715235 3.833524577964744e-05 0.004377916547715581
 3.8335245779651065e-05 0.004377916547715082 3.8335245779647744e-05 0.004377916547715235 0.9999358293049667 -0.00946070926268188 -1.2499796525893793e-05 0.0007048761672521349
 3.833524577964894e-05 0.0043779165477152516 3.833524577964741e-05 0.0043779165477155785 -1.2499796525893788e-05 0.0007048761672521345 0.9999358293049666 -0.009460709262680207
1000000.0 0.9997342201780735 -0.01935860393580047 -4.0831620160769854e-05 0.0018509647028590987 0.00015330572104363055 0.00875381961647112 0.00015330572104362204 0.008753819616471462
 -4.083162016076982e-05 0.0018509647028590987 0.9997342201780732 -0.019358603935796134 0.00015330572104361716 0.008753819616471422 0.000153305721043616 0.008753819616472116
 0.0001533057210436304 0.008753819616471113 0.00015330572104361716 0.008753819616471422 0.9997433604909658 -0.018918617210067493 -4.997193305310884e-05 0.0014109779771261065
 0.0001533057210436219 0.008753819616471452 0.00015330572104361586 0.008753819616472109 -4.9971933053108836e-05 0.0014109779771261054 0.9997433604909658 -0.018918617210064152
1500000.0 0.9994021631267037 -0.029030639174565463 -9.177456795192176e-05 0.002779241548756967 0.00034480572062411805 0.013125698812904894 0.000344805720624099 0.013125698812905408
 -9.177456795192164e-05 0.0027792415487569674 0.999402163126704 -0.02903063917455896 0.0003448057206240879 0.013125698812905345 0.0003448057206240854 0.013125698812906391
 0.0003448057206241179 0.013125698812904889 0.0003448057206240881 0.013125698812905352 0.9994227232840327 -0.028370926019454415 -0.00011233472528112774 0.002119528393645908
 0.0003448057206240988 0.013125698812905397 0.0003448057206240853 0.013125698812906384 -0.00011233472528112764 0.0021195283936459065 0.9994227232840331 -0.02837092601944942
2000000.0 0.9989375960112596 -0.038693964376066314 -0.00016291468942797573 0.0037108645662277 0.0006126593390841277 0.017491549904920172 0.0006126593390840937 0.017491549904920852
 -0.00016291468942797565 0.003710864566227701 0.99893759601126 -0.038693964376057655 0.0006126593390840743 0.01749154990492078 0.0006126593390840695 0.017491549904922164
 0.0006126593390841274 0.01749154990492016 0.0006126593390840743 0.01749154990492078 0.998974133603705 -0.03781484484296173 -0.00019945228187337897 0.0028317450331230886
 0.0006126593390840933 0.01749154990492084 0.0006126593390840692 0.017491549904922157 -0.00019945228187337902 0.0028317450331230877 0.9989741336037052 -0.037814844842955046
2500000.0 0.9983408308422689 -0.0483456928925454 -0.00025407259080358915 0.0046469371374193305 0.0009566208742672942 0.02184937787756412 0.0009566208742672411 0.021849377877564972
 -0.00025407259080358877 0.0046469371374193305 0.9983408308422692 -0.04834569289253458 0.0009566208742672109 0.021849377877564875 0.0009566208742672036 0.021849377877566616
 0.0009566208742672936 0.0218493778775641 0.0009566208742672113 0.021849377877564885 0.9983978931284863 -0.04724759326908089 -0.0003111348770207829 0.003548837513954775
 0.0009566208742672405 0.021849377877564954 0.0009566208742672027 0.021849377877566595 -0.0003111348770207826 0.0035488375139547733 0.9983978931284864 -0.04724759326907254
3000000.0 0.9976122677138668 -0.05798295232598935 -0.00036501849356250277 0.005588552407296179 0.001376375389847598 0.026197199959347887 0.0013763753898475217 0.026197199959348907
 -0.00036501849356250244 0.005588552407296178 0.9976122677138675 -0.057982952325976375 0.0013763753898474779 0.026197199959348796 0.0013763753898474677 0.02619719995935088
 0.0013763753898475971 0.026197199959347866 0.0013763753898474785 0.026197199959348806 0.9976943886899783 -0.05666640475334963 -0.00044713946967345084 0.0042720048346564015
 0.0013763753898475206 0.026197199959348886 0.001376375389847467 0.02619719995935087 -0.00044713946967345057 0.004272004834656399 0.9976943886899786 -0.05666640475333963
3500000.0 0.9967523940129988 -0.06760288801242716 -0.0004954728819567934 0.006536790793605012 0.001871539434479025 0.030533048609412573 0.0018715394344789207 0.030533048609413766
 -0.0004954728819567932 0.006536790793605012 0.9967523940129995 -0.06760288801241206 0.001871539434478863 0.03053304860941365 0.0018715394344788483 0.03053304860941608
 0.001871539434479024 0.03053304860941256 0.001871539434478863 0.03053304860941366 0.9968640914981448 -0.06606853000811369 -0.0006071703671030723 0.005002432789291516
 0.0018715394344789205 0.030533048609413766 0.0018715394344788478 0.030533048609416066 -0.0006071703671030725 0.005002432789291514 0.9968640914981454 -0.06606853000810203
4000000.0 0.9957617834593799 -0.07720266645474304 -0.0006451072883558759 0.0074927175424350555 0.0024416619144877294 0.03485497445615573 0.0024416619144875936 0.03485497445615711
 -0.0006451072883558752 0.007492717542435052 0.9957617834593814 -0.07720266645472579 0.0024416619144875177 0.03485497445615696 0.002441661914487499 0.034854974456159746
 0.002441661914487727 0.03485497445615571 0.0024416619144875173 0.03485497445615696 0.9959075562008431 -0.0754512403415581 -0.0007908800298187178 0.0057412914292500295
 0.0024416619144875923 0.034854974456157074 0.0024416619144874974 0.034854974456159725 -0.0007908800298187177 0.005741291429250025 0.9959075562008439 -0.07545124034154478
4500000.0 0.9946410949800627 -0.08677947869430862 -0.0008135452128880795 0.008457380337916237 0.0030862251164126948 0.03916104917819811 0.0030862251164125248 0.03916104917819967
 -0.0008135452128880787 0.008457380337916239 0.9946410949800637 -0.08677947869428919 0.0030862251164124263 0.0391610491781995 0.0030862251164124046 0.03916104917820264
 0.003086225116412693 0.03916104917819809 0.0030862251164124276 0.039161049178199514 0.9948254197814139 -0.08481183093645844 -0.0009978700142396373 0.006489732580066044
 0.003086225116412523 0.039161049178199646 0.0030862251164124025 0.03916104917820261 -0.0009978700142396373 0.00648973258006604 0.9948254197814148 -0.0848118309364435
5000000.0 0.9933910714230513 -0.0963305436120561 -0.0010003631732301396 0.009431806974294792 0.0038046458750893427 0.04344936831888279 0.003804645875089135 0.043449368318884546
 -0.001000363173230139 0.00943180697429479 0.9933910714230533 -0.09633054361203458 0.0038046458750890144 0.043449368318884365 0.003804645875088989 0.04344936831888786
 0.00380464587508934 0.04344936831888277 0.0038046458750890157 0.04344936831888438 0.993618400298755 -0.09414762405942029 -0.001227692048934303 0.007248887421658944
 0.003804645875089133 0.04344936831888452 0.0038046458750889862 0.043449368318887835 -0.0012276920489343016 0.0072488874216589385 0.9936184002987569 -0.09414762405940375
5500000.0 0.9920125381150644 -0.10585311114998301 -0.001205091879841008 0.0104170030982757 0.004596276882387939 0.04771805402585603 0.004596276882387687 0.04771805402585796
 -0.0012050918798410062 0.010417003098275698 0.992012538115067 -0.10585311114995939 0.004596276882387542 0.04771805402585776 0.00459627688238751 0.0477180540258616
 0.004596276882387935 0.047718054025855994 0.004596276882387543 0.04771805402585777 0.9922872954748927 -0.10345597219173658 -0.0014798492396692867 0.00801986414002918
 0.0045962768823876845 0.047718054025857916 0.0045962768823875075 0.04771805402586158 -0.0014798492396692862 0.008019864140029179 0.9922872954748947 -0.10345597219171836
6000000.0 0.9905064012690714 -0.11534446544448596 -0.0014272175314097237 0.011413950029130857 0.005460408131168805 0.05196525770768013 0.005460408131168503 0.051965257707682226
 -0.001427217531409722 0.011413950029130855 0.9905064012690741 -0.11534446544446021 0.005460408131168334 0.05196525770768203 0.005460408131168295 0.051965257707686216
 0.0054604081311688014 0.0519652577076801 0.005460408131168336 0.051965257707682046 0.9908329811356406 -0.1127342610734018 -0.0017537973979783706 0.008803745658046574
 0.0054604081311685 0.05196525770768219 0.005460408131168292 0.0519652577076862 -0.0017537973979783695 0.008803745658046572 0.9908329811356421 -0.11273426107338187
6500000.0 0.9888736462477905 -0.12480192786337159 -0.0016661832247958093 0.012423602663642367 0.006396268488502362 0.056189162599867414 0.006396268488502009 0.056189162599869676
 -0.001666183224795808 0.012423602663642366 0.9888736462477935 -0.12480192786334372 0.006396268488501811 0.05618916259986948 0.006396268488501769 0.05618916259987404
 0.006396268488502357 0.056189162599867365 0.00639626848850181 0.056189162599869474 0.9892564095104592 -0.1219799126522657 -0.0020489464874645755 0.00960158745253637
 0.0063962684885020046 0.056189162599869634 0.006396268488501765 0.056189162599874005 -0.0020489464874645755 0.009601587452536366 0.9892564095104615 -0.1219799126522442
7000000.0 0.9871153356898328 -0.13422285993888072 -0.0019213904732879122 0.013446887472486974 0.0074030273917272205 0.06038798623319989 0.00740302739172682 0.06038798623320236
 -0.0019213904732879104 0.013446887472486973 0.9871153356898364 -0.13422285993885086 0.007403027391726589 0.06038798623320216 0.007403027391726543 0.06038798623320707
 0.007403027391727216 0.060387986233199846 0.007403027391726591 0.06038798623320217 0.987558607398134 -0.13119038793079502 -0.0023646621815889466 0.01041441546440116
 0.0074030273917268154 0.060387986233202344 0.00740302739172654 0.06038798623320704 -0.0023646621815889466 0.010414415464401154 0.9875586073981367 -0.13119038793077198
7500000.0 0.9852326075056215 -0.14360466618957907 -0.002192200826594611 0.014484700594172775 0.008479796660486226 0.06455998279770635 0.008479796660485771 0.06455998279770904
 -0.00219220082659461 0.014484700594172775 0.9852326075056256 -0.1436046661895471 0.008479796660485504 0.0645599827977088 0.008479796660485452 0.06455998279771406
 0.008479796660486223 0.0645599827977063 0.008479796660485508 0.0645599827977088 0.9857406742053088 -0.14036318970342443 -0.0027002675262820996 0.011243224108018068
 0.008479796660485765 0.06455998279770898 0.008479796660485449 0.06455998279771404 -0.0027002675262820974 0.011243224108018063 0.9857406742053119 -0.14036318970339978
8000000.0 0.9832266727506297 -0.15294479682451767 -0.002477937585612803 0.015537906032117625 0.009625632417491032 0.06870344539620345 0.009625632417490511 0.06870344539620632
 -0.002477937585612803 0.015537906032117625 0.9832266727506346 -0.15294479682448364 0.00962563241749021 0.06870344539620608 0.009625632417490156 0.06870344539621173
 0.009625632417491025 0.06870344539620342 0.009625632417490213 0.0687034453962061 0.983803779865357 -0.14949586517802493 -0.003055044700340307 0.012088974385624765
 0.009625632417490506 0.06870344539620629 0.009625632417490147 0.06870344539621166 -0.0030550447003403055 0.012088974385624755 0.9838037798653607 -0.14949586517799865
8500000.0 0.9810988133838501 -0.1622407503236401 -0.0027778876046954553 0.016607333959914122 0.010839537110422126 0.07281670818186664 0.010839537110421538 0.07281670818186968
 -0.0027778876046954545 0.016607333959914126 0.9810988133838554 -0.162240750323604 0.010839537110421201 0.07281670818186944 0.010839537110421139 0.07281670818187544
 0.010839537110422117 0.0728167081818666 0.010839537110421203 0.07281670818186946 0.9817491626453936 -0.15858600847558474 -0.0034282368662388223 0.012952592111858622
 0.010839537110421533 0.07281670818186965 0.01083953711042113 0.07281670818187538 -0.003428236866238822 0.012952592111858613 0.9817491626453974 -0.15858600847555684
9000000.0 0.9788503799197125 -0.17149007588900503 -0.0030913031738634277 0.017693779139262355 0.012120461627074803 0.07689814837487519 0.012120461627074152 0.07689814837487846
 -0.0030913031738634238 0.017693779139262362 0.9788503799197187 -0.17149007588896698 0.012120461627073777 0.0768981483748782 0.012120461627073711 0.07689814837488457
 0.012120461627074796 0.07689814837487516 0.01212046162707378 0.07689814837487823 0.9795781268495619 -0.16763126300278808 -0.003819050103712754 0.01383496625304526
 0.012120461627074145 0.0768981483748784 0.012120461627073706 0.07689814837488453 -0.003819050103712751 0.013834966253045257 0.9795781268495662 -0.16763126300275868
9500000.0 0.9764827889819484 -0.18069037576200606 -0.003417403973176193 0.018797999454473985 0.013467307495613208 0.08094618815377011 0.01346730749561249 0.08094618815377358
 -0.0034174039731761914 0.018797999454473985 0.9764827889819553 -0.180690375761966 0.013467307495612073 0.08094618815377333 0.013467307495612008 0.08094618815378007
 0.013467307495613201 0.08094618815377008 0.013467307495612079 0.08094618815377334 0.9772920404269932 -0.17662932369278203 -0.004226655418221022 0.01473694738524984
 0.013467307495612481 0.08094618815377354 0.013467307495611997 0.08094618815378 -0.00422665541822102 0.014736947385249827 0.9772920404269979 -0.17662932369275106
10000000.0 0.9739975207681031 -0.18983930740238908 -0.0037553790912943567 0.01992071456686265 0.014878929161594907 0.08495929641776746 0.014878929161594116 0.08495929641777114
 -0.0037553790912943554 0.01992071456686265 0.9739975207681102 -0.1898393074023469 0.014878929161593652 0.08495929641777089 0.01487892916159358 0.08495929641777798
 0.014878929161594901 0.08495929641776745 0.014878929161593661 0.08495929641777093 0.9748923324930311 -0.18557793911003728 -0.004650190816222323 0.01565934627451077
 0.01487892916159411 0.08495929641777113 0.014878929161593571 0.08495929641777793 -0.004650190816222319 0.015659346274510762 0.9748923324930362 -0.18557793911000478
10500000.0 0.9713961164335754 -0.1989345855254998 -0.004104389100133024 0.021062604691742006 0.01635413633327799 0.08893599041688338 0.01635413633327713 0.08893599041688728
 -0.004104389100133022 0.021062604691742006 0.9713961164335833 -0.19893458552545573 0.016354136333276623 0.088935990416887 0.01635413633327655 0.08893599041689448
 0.016354136333277983 0.08893599041688334 0.01635413633327663 0.08893599041688703 0.9723804907724961 -0.19447491341583434 -0.005088763439053774 0.01660293258207637
 0.01635413633327712 0.08893599041688725 0.01635413633327654 0.08893599041689443 -0.00508876343905377 0.016602932582076364 0.9723804907725022 -0.1944749134158003
11000000.0 0.9686801754041761 -0.207973983994825 -0.004463568177418865 0.022224309500156112 0.017891696386620567 0.09287483724733911 0.017891696386619627 0.09287483724734323
 -0.0044635681774188645 0.022224309500156116 0.9686801754041845 -0.2079739839947789 0.017891696386619076 0.09287483724734297 0.017891696386618992 0.09287483724735081
 0.017891696386620557 0.09287483724733907 0.01789169638661908 0.09287483724734298 0.9697580589738696 -0.2033181081915319 -0.005541451747112715 0.017568433696862895
 0.01789169638661962 0.0928748372473432 0.017891696386618982 0.09287483724735074 -0.005541451747112714 0.017568433696862885 0.9697580589738761 -0.20331810819149632
11500000.0 0.9658513526262655 -0.21695533756752194 -0.004832026268924846 0.023406427146873753 0.019490336821328634 0.09677445521032903 0.019490336821327614 0.09677445521033336
 -0.00483202626892484 0.023406427146873753 0.9658513526262752 -0.21695533756747407 0.019490336821327024 0.09677445521033311 0.019490336821326944 0.09677445521034132
 0.019490336821328627 0.096774455210329 0.01949033682132703 0.09677445521033315 0.9670266341033404 -0.2121054441174018 -0.006007307745999376 0.018556533696753346
 0.0194903368213276 0.09677445521033329 0.019490336821326927 0.09677445521034127 -0.0060073077459993724 0.018556533696753332 0.967026634103347 -0.21210544411736462
12000000.0 0.962911355763558 -0.2258765434912597 -0.005208851282163555 0.02460951342559046 0.021148747759301614 0.10063351503283974 0.021148747759300514 0.1006335150328443
 -0.005208851282163549 0.024609513425590458 0.9629113557635685 -0.22587654349120978 0.021148747759299858 0.10063351503284403 0.021148747759299785 0.10063351503285264
 0.021148747759301603 0.1006335150328397 0.021148747759299872 0.10063351503284408 0.9641878637276766 -0.22083490250543203 -0.006485359246281862 0.01956787243976259
 0.021148747759300496 0.10063351503284422 0.021148747759299775 0.10063351503285259 -0.0064853592462818565 0.019567872439762577 0.9641878637276841 -0.22083490250539345
12500000.0 0.9598619423496426 -0.23473556295130907 -0.005593111303372107 0.025834081051704722 0.022865584476863585 0.10445074094980747 0.02286558447686239 0.10445074094981224
 -0.005593111303372101 0.02583408105170472 0.9598619423496538 -0.23473556295125733 0.02286558447686171 0.10445074094981205 0.022865584476861617 0.10445074094982097
 0.022865584476863574 0.10445074094980744 0.022865584476861725 0.10445074094981209 0.9612434431948644 -0.22950452668511584 -0.0069746121485936485 0.020603044785511258
 0.022865584476862384 0.10445074094981219 0.022865584476861614 0.10445074094982094 -0.006974612148593646 0.020603044785511254 0.9612434431948724 -0.2295045266850757
13000000.0 0.9567049169052103 -0.2435304223674284 -0.005983856829716449 0.027080599072470953 0.024639469962251706 0.10822491164748427 0.024639469962250415 0.10822491164748922
 -0.005983856829716446 0.027080599072470957 0.9567049169052224 -0.24353042236737465 0.02463946996224968 0.10822491164748904 0.024639469962249604 0.10822491164749841
 0.024639469962251685 0.1082249116474842 0.024639469962249683 0.10822491164748904 0.9581951128213605 -0.23811242324183818 -0.007474052745866024 0.021662599946880495
 0.024639469962250405 0.10822491164748917 0.024639469962249586 0.10822491164749833 -0.007474052745866021 0.02166259994688048 0.9581951128213688 -0.2381124232417966
13500000.0 0.9534421280288603 -0.2522592145406756 -0.006380123008778889 0.02834949240378488 0.02646899748995785 0.11195486106845116 0.026468997489956486 0.1119548610684564
 -0.006380123008778879 0.02834949240378488 0.9534421280288734 -0.2522592145406202 0.02646899748995569 0.11195486106845616 0.026468997489955622 0.11195486106846592
 0.02646899748995783 0.1119548610684511 0.026468997489955706 0.11195486106845623 0.9550446550547131 -0.24665676310805745 -0.007982650034631472 0.022747040971166383
 0.026468997489956462 0.11195486106845629 0.026468997489955598 0.11195486106846583 -0.007982650034631467 0.02274704097116637 0.9550446550547225 -0.24665676310801446
14000000.0 0.9500754654701938 -0.26092009965085106 -0.006780931877567884 0.029641141492330027 0.02835273320368552 0.11563947907926646 0.02835273320368407 0.11563947907927193
 -0.006780931877567882 0.029641141492330023 0.9500754654702079 -0.2609200996507938 0.02835273320368324 0.11563947907927177 0.028352733203683173 0.1156394790792819
 0.028352733203685507 0.1156394790792664 0.02835273320368325 0.11563947907927181 0.9517938916201331 -0.2551357825080413 -0.00849935802750701 0.023856824349520002
 0.028352733203684064 0.1156394790792719 0.02835273320368316 0.11563947907928186 -0.008499358027507006 0.02385682434951999 0.9517938916201432 -0.2551357825079969
14500000.0 0.9466068571937252 -0.26951130610581847 -0.007185294593500171 0.0309558821013101 0.03028921869988583 0.11927771200226037 0.030289218699884286 0.11927771200226608
 -0.007185294593500167 0.0309558821013101 0.9466068571937403 -0.26951130610575935 0.030289218699883397 0.11927771200226596 0.030289218699883335 0.11927771200227648
 0.030289218699885802 0.11927771200226026 0.030289218699883404 0.11927771200226597 0.9484446806594015 -0.26354778375745674 -0.009023118059175977 0.02499235975294799
 0.03028921869988427 0.119277712002266 0.030289218699883318 0.1192777120022764 -0.009023118059175973 0.024992359752947984 0.9484446806594121 -0.26354778375741084
15000000.0 0.9430382664418986 -0.2780311312444793 -0.00759221365005058 0.03229400521751311 0.03227697360407425 0.12286856301348946 0.03227697360407264 0.12286856301349548
 -0.007592213650050574 0.03229400521751311 0.9430382664419141 -0.27803113124441836 0.03227697360407166 0.12286856301349529 0.03227697360407162 0.12286856301350621
 0.03227697360407424 0.12286856301348945 0.032276973604071675 0.1228685630134953 0.9449989138702786 -0.27189113591963016 -0.009552861078430593 0.026154009892663678
 0.03227697360407261 0.12286856301349537 0.03227697360407159 0.12286856301350609 -0.009552861078430584 0.026154009892663668 0.9449989138702901 -0.27189113591958297
15500000.0 0.939371688805238 -0.28647794189566517 -0.008000685070041112 0.03365575707700213 0.034314498132399625 0.1264110924093381 0.03431449813239792 0.1264110924093443
 -0.008000685070041112 0.033655757077002135 0.9393716888052549 -0.2864779418956025 0.0343144981323969 0.12641109240934423 0.03431449813239685 0.1264110924093555
 0.03431449813239961 0.12641109240933807 0.03431449813239691 0.12641109240934428 0.9414585136543099 -0.2801642753207846 -0.010087509919112671 0.02734209050212127
 0.03431449813239791 0.12641109240934434 0.03431449813239683 0.1264110924093554 -0.010087509919112666 0.027342090502121247 0.9414585136543221 -0.280164275320736
16000000.0 0.9356091493073715 -0.2948501747956824 -0.008409700569844449 0.035041339306305916 0.03640027563123434 0.1299044177446951 0.03640027563123252 0.12990441774470154
 -0.008409700569844447 0.03504133930630591 0.9356091493073896 -0.29485017479561804 0.03640027563123147 0.1299044177447015 0.036400275631231424 0.12990441774471317
 0.03640027563123432 0.12990441774469502 0.03640027563123147 0.1299044177447015 0.9378254302806208 -0.2883657059270141 -0.010625981543092978 0.028556870437637074
 0.03640027563123249 0.12990441774470146 0.036400275631231396 0.12990441774471306 -0.010625981543092975 0.028556870437637057 0.9378254302806335 -0.2883657059269639
16500000.0 0.931752699512341 -0.303146336867678 -0.008818249688106518 0.03645090917559216 0.03853277508788047 0.13334771384604993 0.038532775087878564 0.1333477138460567
 -0.008818249688106516 0.03645090917559216 0.9317526995123601 -0.3031463368676119 0.03853277508787746 0.13334771384605665 0.038532775087877426 0.13334771384606872
 0.03853277508788045 0.13334771384604988 0.03853277508787747 0.13334771384605668 0.9341016390729939 -0.29649399958619177 -0.011167189248758747 0.029798571894105504
 0.03853277508787855 0.1333477138460566 0.038532775087877405 0.1333477138460686 -0.011167189248758742 0.029798571894105487 0.9341016390730076 -0.29649399958614037
17000000.0 0.9278044146612724 -0.3113650053663957 -0.009225321872943303 0.03788457995994806 0.04071045360583309 0.13674021270323106 0.04071045360583111 0.1367402127032381
 -0.009225321872943297 0.03788457995994806 0.9278044146612925 -0.311365005366328 0.040710453605829915 0.13674021270323802 0.04071045360582993 0.13674021270325054
 0.040710453605833065 0.136740212703231 0.04071045360582993 0.13674021270323805 0.9302891376271585 -0.30454779613840033 -0.011710044838829125 0.031067370731952263
 0.04071045360583109 0.13674021270323805 0.0407104536058299 0.13674021270325046 -0.011710044838829122 0.03106737073195225 0.9302891376271732 -0.3045477961383477
17500000.0 0.9237663908451127 -0.31950482789226453 -0.00962990852193645 0.03934242140456801 0.042931758838409405 0.1400812032438558 0.042931758838407295 0.140081203243863
 -0.009629908521936443 0.039342421404568007 0.923766390845134 -0.3195048278921952 0.04293175883840608 0.14008120324386308 0.042931758838406095 0.14008120324387593
 0.04293175883840936 0.1400812032438557 0.0429317588384061 0.1400812032438631 0.9263899430648654 -0.31252580339883385 -0.012253460741688578 0.032363396911136745
 0.04293175883840728 0.14008120324386297 0.04293175883840606 0.14008120324387585 -0.012253460741688574 0.032363396911136745 0.9263899430648805 -0.3125258033987798
18000000.0 0.9196407422197602 -0.32756452227909255 -0.010031004969637429 0.04082446028935805 0.045195131374935964 0.1433700309948749 0.045195131374933806 0.14337003099488246
 -0.010031004969637424 0.04082446028935806 0.9196407422197826 -0.3275645222790215 0.045195131374932494 0.14337003099488246 0.045195131374932564 0.14337003099489584
 0.04519513137493594 0.14337003099487483 0.045195131374932515 0.14337003099488252 0.9224060893309365 -0.3204267970174532 -0.012796352080813417 0.033686735027718295
 0.045195131374933785 0.1433700309948824 0.045195131374932536 0.14337003099489576 -0.012796352080813408 0.033686735027718274 0.922406089330953 -0.320426797017398
18500000.0 0.9154295982695135 -0.33554287635994207 -0.01042761241768737 0.0423306810882102 0.04749900707408415 0.1466060976358738 0.0474990070740819 0.14660609763588167
 -0.010427612417687354 0.04233068108821019 0.915429598269537 -0.3355428763598694 0.04749900707408054 0.1466060976358817 0.0474990070740806 0.1466060976358954
 0.047499007074084124 0.1466060976358737 0.04749900707408055 0.14660609763588173 0.9183396245390919 -0.32824962021997134 -0.013337638687265467 0.03503742494823901
 0.04749900707408186 0.1466060976358816 0.04749900707408059 0.14660609763589535 -0.013337638687265467 0.035037424948239006 0.9183396245391091 -0.32824962021991483
19000000.0 0.911135101124361 -0.3434387476160265 -0.010818739803066215 0.043861026717977765 0.04984181933934971 0.14978886044903242 0.04984181933934736 0.1497888604490406
 -0.010818739803066203 0.04386102671797776 0.9111351011243857 -0.34343874761595233 0.04984181933934594 0.14978886044904063 0.04984181933934604 0.14978886044905482
 0.0498418193393497 0.14978886044903242 0.049841819339345964 0.14978886044904074 0.9141926083719295 -0.335993183434997 -0.013876247050634357 0.03641546253694779
 0.04984181933934734 0.14978886044904052 0.049841819339346005 0.1497888604490547 -0.01387624705063435 0.03641546253694777 0.9141926083719473 -0.33599318343493917
19500000.0 0.9067594029362133 -0.3512510627136988 -0.011203405600398371 0.045415399371996804 0.05222200133208946 0.15291783167085932 0.052222001332087 0.1529178316708677
 -0.011203405600398368 0.045415399371996804 0.9067594029362389 -0.351251062713623 0.05222200133208554 0.1529178316708679 0.05222200133208566 0.15291783167088244
 0.05222200133208942 0.1529178316708592 0.05222200133208554 0.1529178316708679 0.9099671095400405 -0.34365646381239956 -0.014411112204224913 0.03782080047069696
 0.05222200133208697 0.15291783167086767 0.05222200133208562 0.1529178316708823 -0.014411112204224901 0.03782080047069696 0.9099671095400589 -0.34365646381234044
20000000.0 0.9023046633187606 -0.3589788169347989 -0.011580639554658238 0.04699366143284422 0.05463798811794556 0.15599257775098582 0.05463798811794301 0.15599257775099454
 -0.011580639554658226 0.04699366143284421 0.9023046633187876 -0.3589788169347216 0.05463798811794148 0.15599257775099473 0.05463798811794164 0.1559925777510097
 0.05463798811794553 0.15599257775098577 0.05463798811794152 0.15599257775099482 0.9056652033048075 -0.3512385046381398 -0.014941179540704562 0.03925334913618455
 0.05463798811794299 0.15599257775099448 0.0546379881179416 0.15599257775100958 -0.014941179540704551 0.03925334913618453 0.9056652033048268 -0.35123850463807943
20500000.0 0.89777304685521 -0.3666210735057866 -0.011949484341036548 0.048595636458903586 0.057088218742909855 0.1590127185234502 0.05708821874290724 0.15901271852345927
 -0.011949484341036537 0.048595636458903586 0.8977730468552383 -0.3666210735057078 0.05708821874290564 0.1590127185234595 0.05708821874290584 0.15901271852347482
 0.05708821874290984 0.15901271852345017 0.057088218742905664 0.15901271852345952 0.901288969069019 -0.358738414650972 -0.015465406554844812 0.0407129776040884
 0.057088218742907204 0.15901271852345916 0.05708821874290581 0.15901271852347473 -0.015465406554844801 0.04071297760408838 0.901288969069039 -0.35873841465091044
21000000.0 0.8931667206777356 -0.37417696283121965 -0.012308997149143975 0.050221110239222884 0.059571138235700524 0.1619779262960073 0.05957113823569781 0.16197792629601665
 -0.012308997149143956 0.05022111023922287 0.893166720677765 -0.3741769628311393 0.05957113823569616 0.1619779262960169 0.05957113823569638 0.16197792629603264
 0.05957113823570048 0.16197792629600719 0.05957113823569619 0.16197792629601696 0.8968404880390011 -0.3661553672665441 -0.015982764510408927 0.04219951467454666
 0.05957113823569776 0.16197792629601654 0.059571138235696354 0.16197792629603258 -0.015982764510408917 0.04219951467454664 0.8968404880390224 -0.36615536726648135
21500000.0 0.8884878521220526 -0.38164568163722745 -0.012658251189139337 0.051869831911091076 0.06208519953353948 0.16488792486307735 0.062085199533536695 0.16488792486308704
 -0.012658251189139325 0.051869831911091076 0.8884878521220836 -0.3816456816371458 0.06208519953353498 0.16488792486308732 0.06208519953353527 0.16488792486310355
 0.06208519953353944 0.16488792486307727 0.062085199533534995 0.16488792486308734 0.8923218409615655 -0.37348859971451365 -0.016492240028651677 0.0437127499883766
 0.06208519953353664 0.16488792486308693 0.062085199533535224 0.16488792486310344 -0.01649224002865167 0.04371274998837657 0.8923218409615877 -0.37348859971444975
22000000.0 0.8837386064601052 -0.38902649203070067 -0.012996337117774426 0.05354151513473532 0.06462886532883058 0.16774248844799203 0.06462886532882771 0.16774248844800202
 -0.012996337117774415 0.05354151513473531 0.8837386064601371 -0.3890264920306175 0.06462886532882595 0.16774248844800238 0.06462886532882627 0.16774248844801898
 0.06462886532883055 0.16774248844799194 0.06462886532882596 0.16774248844800244 0.8877351059386352 -0.38073741209435924 -0.016992836596303924 0.04525243519839323
 0.06462886532882768 0.16774248844800194 0.06462886532882622 0.1677424884480189 -0.016992836596303917 0.045252435198393205 0.8877351059386582 -0.3807374120942942
22500000.0 0.878921144713453 -0.3963187204799504 -0.013322364382743234 0.05523583931954313 0.06720060983464081 0.17054144058021325 0.06720060983463785 0.17054144058022355
 -0.013322364382743226 0.05523583931954312 0.8789211447134863 -0.39631872047986594 0.06720060983463602 0.17054144058022397 0.0672006098346364 0.17054144058024104
 0.06720060983464077 0.17054144058021312 0.06720060983463604 0.170541440580224 0.8830823563220247 -0.3879011663555953 -0.017483575991314393 0.046818285195187215
 0.06720060983463781 0.17054144058022344 0.06720060983463637 0.1705414405802409 -0.017483575991314393 0.04681828519518718 0.8830823563220489 -0.3879011663555291
23000000.0 0.8740376215495397 -0.4035217567225992 -0.013635462484108069 0.05695245089624374 0.06979892046727967 0.17328465291318756 0.06979892046727662 0.1732846529131982
 -0.013635462484108065 0.056952450896243734 0.8740376215495741 -0.40352175672251345 0.06979892046727479 0.1732846529131987 0.0697989204672752 0.17328465291321618
 0.06979892046727965 0.17328465291318748 0.0697989204672748 0.17328465291319872 0.8783656586904407 -0.3949792852081021 -0.017963499625008348 0.04840997938174577
 0.06979892046727658 0.17328465291319808 0.06979892046727515 0.17328465291321607 -0.017963499625008345 0.048409979381745745 0.8783656586904657 -0.3949792852080347
23500000.0 0.8690901832626311 -0.41063505260644473 -0.013934782151948282 0.058690964629538545 0.07242229944465398 0.17597204398846314 0.07242229944465081 0.17597204398847402
 -0.013934782151948273 0.05869096462953854 0.8690901832626666 -0.41063505260635746 0.0724222994446489 0.17597204398847457 0.07242229944464937 0.17597204398849248
 0.0724222994446539 0.175972043988463 0.07242229944464892 0.1759720439884746 0.873587070910383 -0.4019712509682599 -0.01843166979969976 0.050027162991352986
 0.07242229944465078 0.17597204398847396 0.07242229944464931 0.17597204398849234 -0.018431669799699756 0.050027162991352965 0.8735870709104089 -0.4019712509681915
24000000.0 0.8640809658408415 -0.4176581208689941 -0.01421949643973537 0.06045096496575001 0.07506926529944204 0.17860357795163231 0.07506926529943883 0.1786035779516436
 -0.014219496439735363 0.06045096496575 0.8640809658408785 -0.41765812086890547 0.07506926529943682 0.17860357795164417 0.07506926529943736 0.1786035779516625
 0.075069265299442 0.17860357795163226 0.07506926529943685 0.17860357795164425 0.8687486402822625 -0.4088766043465247 -0.018887170881155525 0.05166944844327968
 0.07506926529943879 0.1786035779516435 0.07506926529943733 0.17860357795166243 -0.018887170881155522 0.05166944844327965 0.8687486402822894 -0.40887660434645523
24500000.0 0.8590120931202985 -0.42459053386130136 -0.014488801733282146 0.06223200741016041 0.0777383543064867 0.18117926322558095 0.07773835430648343 0.1811792632255926
 -0.014488801733282137 0.062232007410160405 0.8590120931203368 -0.4245905338612114 0.07773835430648136 0.1811792632255932 0.07773835430648199 0.181179263225612
 0.07773835430648667 0.18117926322558087 0.0777383543064814 0.18117926322559327 0.8638524017726746 -0.41569494318201333 -0.019329110385657596 0.05333641673087149
 0.07773835430648339 0.1811792632255925 0.07773835430648195 0.1811792632256119 -0.019329110385657593 0.05333641673087147 0.8638524017727027 -0.41569494318194283
25000000.0 0.8538856750271464 -0.43143192222164284 -0.014741918675440191 0.06403361992883268 0.08042812182414151 0.1836991511464158 0.08042812182413815 0.18369915114642776
 -0.014741918675440181 0.06403361992883266 0.8538856750271862 -0.43143192222155174 0.08042812182413607 0.1836991511464285 0.08042812182413672 0.18369915114644764
 0.08042812182414144 0.1836991511464157 0.08042812182413608 0.18369915114642857 0.8589003763334467 -0.4224259211295727 -0.0197566199817395 0.055027618836761584
 0.08042812182413811 0.18369915114642765 0.08042812182413668 0.18369915114644758 -0.019756619981739495 0.05502761883676156 0.8589003763334755 -0.4224259211295012
25500000.0 0.8487038059077633 -0.4381819735044676 -0.014978093007029429 0.06585530436984705 0.08313714354962755 0.18616333456732115 0.08313714354962409 0.18616333456733347
 -0.014978093007029411 0.06585530436984702 0.8487038059078044 -0.43818197350437527 0.08313714354962194 0.18616333456733425 0.08313714354962269 0.18616333456735387
 0.08313714354962748 0.18616333456732106 0.083137143549622 0.18616333456733433 0.8538945693077225 -0.4290692463046924 -0.020168856406987803 0.056742577170070925
 0.08313714354962402 0.18616333456733333 0.08313714354962266 0.18616333456735382 -0.02016885640698779 0.0567425771700709 0.8538945693077521 -0.42906924630461973
26000000.0 0.8434685629472428 -0.44484043076992213 -0.015196596324774924 0.06769653789904326 0.08586401668876024 0.18857194643545064 0.08586401668875672 0.18857194643546327
 -0.015196596324774906 0.06769653789904324 0.8434685629472852 -0.44484043076982854 0.08586401668875457 0.18857194643546413 0.08586401668875539 0.18857194643548422
 0.08586401668876016 0.18857194643545047 0.08586401668875455 0.18857194643546413 0.8488369689230625 -0.43562467989149295 -0.020565002300593844 0.05848078702061302
 0.08586401668875666 0.18857194643546313 0.08586401668875533 0.1885719464354841 -0.020565002300593844 0.058480787020613 0.8488369689230935 -0.4356246798914193
26500000.0 0.8381820046759051 -0.45140709113911437 -0.015396726757298201 0.06955677444552989 0.08860736104069043 0.19092515834680363 0.08860736104068688 0.19092515834681661
 -0.015396726757298178 0.06955677444552986 0.8381820046759489 -0.45140709113901956 0.08860736104068462 0.19092515834681756 0.08860736104068552 0.19092515834683804
 0.08860736104069036 0.19092515834680351 0.08860736104068463 0.19092515834681761 0.8437295448712263 -0.44209203471887343 -0.02094426695261844 0.060241718025288014
 0.08860736104068682 0.19092515834681648 0.08860736104068548 0.19092515834683796 -0.02094426695261844 0.06024171802528797 0.843729544871258 -0.44209203471879893
27000000.0 0.8328461695633111 -0.4578818043201169 -0.015577809560464048 0.07143544615240655 0.09136581999857007 0.19322317908386683 0.09136581999856644 0.19322317908388018
 -0.015577809560464017 0.07143544615240653 0.8328461695633564 -0.4578818043200212 0.09136581999856418 0.19322317908388115 0.09136581999856518 0.19322317908390213
 0.09136581999857002 0.1932231790838667 0.09136581999856422 0.19322317908388123 0.8385742469740372 -0.44847117380974455 -0.021305886971189313 0.062024815642033035
 0.09136581999856637 0.19322317908388 0.0913658199985651 0.19322317908390202 -0.021305886971189292 0.06202481564203301 0.83857424697407 -0.448471173809669
27500000.0 0.8274630746990048 -0.4642644711095454 -0.01573919763361642 0.07333196482834012 0.09413806146729926 0.1954662531406146 0.0941380614672956 0.1954662531406284
 -0.015739197633616402 0.0733319648283401 0.8274630746990513 -0.4642644711094485 0.09413806146729323 0.19546625314062943 0.09413806146729431 0.19546625314065078
 0.0941380614672992 0.19546625314061444 0.09413806146729325 0.1954662531406294 0.8333730039344786 -0.4547620089080945 -0.021649126869089257 0.06382950262688783
 0.09413806146729554 0.1954662531406282 0.09413806146729423 0.1954662531406506 -0.021649126869089253 0.06382950262688779 0.8333730039345124 -0.454762008908018
28000000.0 0.8220347145589586 -0.4705550418743639 -0.015880271958451892 0.07524572339584075 0.09692277869973975 0.19765465923927372 0.09692277869973603 0.19765465923928782
 -0.01588027195845186 0.07524572339584074 0.8220347145590067 -0.47055504187426606 0.09692277869973367 0.197654659239289 0.09692277869973483 0.19765465923931075
 0.0969227786997397 0.19765465923927356 0.09692277869973372 0.19765465923928904 0.8281277221719195 -0.46096449898846187 -0.021973279571411566 0.06565518050993738
 0.09692277869973596 0.19765465923928766 0.09692277869973479 0.1976546592393107 -0.021973279571411552 0.06565518050993735 0.828127722171954 -0.4609644989883844
28500000.0 0.8165630598564838 -0.4767535150183804 -0.016000441962472994 0.07717609733229552 0.09971869105298756 0.19978870884305472 0.09971869105298381 0.1997887088430693
 -0.016000441962472967 0.07717609733229551 0.8165630598565329 -0.4767535150182813 0.09971869105298131 0.19978870884307037 0.09971869105298263 0.19978870884309272
 0.09971869105298747 0.1997887088430546 0.09971869105298137 0.19978870884307048 0.8228402847401695 -0.46707864875218996 -0.02227766684615795 0.0675012310661039
 0.09971869105298375 0.19978870884306918 0.09971869105298257 0.1997887088430926 -0.022277666846157927 0.06750123106610384 0.8228402847402054 -0.46707864875211175
29000000.0 0.8110500564761516 -0.4828599354376987 -0.016099145809138116 0.07912244610003531 0.10252454466648588 0.20186874466884425 0.10252454466648202 0.20186874466885907
 -0.016099145809138106 0.0791224461000353 0.8110500564762024 -0.48285993543759864 0.10252454466647958 0.2018687446688604 0.10252454466648095 0.20186874466888316
 0.10252454466648578 0.20186874466884408 0.1025245446664796 0.2018687446688605 0.8175125503268479 -0.4731045071146395 -0.02256163965983344 0.06936701777697483
 0.102524544666482 0.20186874466885904 0.10252454466648088 0.20186874466888305 -0.022561639659833432 0.0693670177769748 0.8175125503268847 -0.4731045071145603
29500000.0 0.8054976244891036 -0.4888743929691904 -0.016175850616980715 0.08108411456193336 0.10533911306393093 0.20389513920364127 0.10533911306392699 0.2038951392036564
 -0.016175850616980708 0.08108411456193335 0.8054976244891554 -0.4888743929690891 0.1053391130639245 0.20389513920365787 0.10533911306392595 0.20389513920368094
 0.10533911306393084 0.20389513920364113 0.1053391130639245 0.20389513920365784 0.8121463523323771 -0.47904216568733515 -0.022824578460253278 0.07125188728007688
 0.105339113063927 0.20389513920365637 0.1053391130639259 0.20389513920368088 -0.02282457846025329 0.07125188728007685 0.8121463523324147 -0.479042165687255
30000000.0 0.7999076572479441 -0.4947970208358406 -0.016230052610107085 0.0830604343792588 0.10816119768107348 0.205868293228304 0.1081611976810696 0.20586829322831962
 -0.01623005261010705 0.08306043437925877 0.7999076572479976 -0.49479702083573857 0.10816119768106697 0.20586829322832098 0.10816119768106859 0.20586829322834463
 0.10816119768107342 0.2058682932283039 0.10816119768106701 0.20586829322832112 0.8067434980267557 -0.4848917572588113 -0.023065893388917562 0.07315517080222805
 0.10816119768106952 0.20586829322831945 0.10816119768106852 0.20586829322834452 -0.023065893388917548 0.07315517080222803 0.8067434980267947 -0.4848917572587305
30500000.0 0.7942820205592789 -0.5006279940926165 -0.01626127720259959 0.08505072538873464 0.11098962832165223 0.20778863435195424 0.11098962832164831 0.20778863435197023
 -0.01626127720259959 0.08505072538873464 0.7942820205593337 -0.5006279940925135 0.1109896283216457 0.2077886343519718 0.11098962832164741 0.2077886343519958
 0.11098962832165218 0.20778863435195413 0.1109896283216457 0.20778863435197178 0.8013057677821127 -0.49065345427770873 -0.023285024425432566 0.07507618557382538
 0.11098962832164827 0.20778863435197015 0.11098962832164734 0.20778863435199568 -0.02328502442543255 0.07507618557382537 0.8013057677821526 -0.4906534542776271
31000000.0 0.7886225519318152 -0.5063675280762869 -0.016269079019453642 0.08705429695597748 0.11382326354381081 0.2096566155601682 0.11382326354380685 0.20965661556018456
 -0.016269079019453653 0.0870542969559775 0.788622551931871 -0.5063675280761827 0.11382326354380422 0.2096566155601863 0.113823263543806 0.2096566155602107
 0.11382326354381077 0.20965661556016815 0.11382326354380423 0.2096566155601863 0.7958349143789248 -0.4963274673414641 -0.023481441466562565 0.07701423622115336
 0.11382326354380681 0.20965661556018456 0.11382326354380594 0.2096566155602106 -0.023481441466562565 0.07701423622115332 0.7958349143789658 -0.49632746734138167
31500000.0 0.7829310598978438 -0.5120158768624199 -0.016253041856758844 0.0890704493027209 0.11666099097944871 0.21147271377986324 0.11666099097944473 0.21147271377987997
 -0.016253041856758844 0.08907044930272089 0.7829310598979013 -0.5120158768623151 0.11666099097944205 0.21147271377988178 0.11666099097944398 0.21147271377990656
 0.11666099097944865 0.21147271377986313 0.1166609909794421 0.2114727137798818 0.79033266238367 -0.5019140436937218 -0.023654644342584085 0.07896861613402124
 0.11666099097944467 0.2114727137798799 0.11666099097944393 0.21147271377990656 -0.023654644342584085 0.07896861613402122 0.7903326623837118 -0.5019140436936385
32000000.0 0.7772093234058082 -0.517573331732564 -0.016212778583902195 0.0910984748054481 0.11950172758903789 0.21323742846357205 0.11950172758903385 0.21323742846358926
 -0.016212778583902156 0.09109847480544805 0.7772093234058673 -0.5175733317324582 0.11950172758903113 0.21323742846359103 0.1195017275890332 0.21323742846361637
 0.11950172758903777 0.21323742846357188 0.11950172758903113 0.21323742846359103 0.7848007075955917 -0.5074134657333795 -0.023804162773684866 0.08093860880626198
 0.11950172758903377 0.21323742846358906 0.11950172758903313 0.21323742846361626 -0.023804162773684866 0.08093860880626193 0.784800707595635 -0.5074134657332954
32500000.0 0.771459091281597 -0.5230402196544138 -0.01614793099062143 0.09313765926327974 0.12234441985450288 0.2149512801955813 0.1223444198544988 0.2149512801955988
 -0.016147930990621406 0.09313765926327973 0.771459091281657 -0.5230402196543069 0.122344419854496 0.2149512801956006 0.12234441985449825 0.21495128019562643
 0.12234441985450281 0.21495128019558113 0.12234441985449607 0.2149512801956007 0.7792407165601823 -0.5128260495379797 -0.023929556269206127 0.08292348914684418
 0.12234441985449876 0.2149512801955987 0.12234441985449816 0.21495128019562632 -0.02392955626920612 0.08292348914684414 0.7792407165602265 -0.5128260495378948
33000000.0 0.7656820817561246 -0.5284169017775521 -0.016058169581773897 0.09518728313317976 0.12518804391281496 0.2166148093222007 0.1251880439128109 0.21661480932221866
 -0.016058169581773897 0.09518728313317974 0.7656820817561864 -0.5284169017774446 0.1251880439128081 0.21661480932222066 0.1251880439128105 0.2166148093222469
 0.12518804391281488 0.21661480932220056 0.12518804391280816 0.21661480932222069 0.7736543261469185 -0.5181521434039406 -0.024030413972567027 0.08492252475956659
 0.12518804391281083 0.2166148093222185 0.12518804391281035 0.21661480932224675 -0.02403041397256701 0.08492252475956655 0.7736543261469638 -0.518152143403855
33500000.0 0.7598799820567163 -0.5337037719471591 -0.0159431933227061 0.09724662273075024 0.12803160563298482 0.21822857460821915 0.12803160563298085 0.21822857460823766
 -0.015943193322706075 0.09724662273075023 0.7598799820567794 -0.5337037719470507 0.12803160563297794 0.21822857460823958 0.12803160563298052 0.2182285746082664
 0.12803160563298474 0.21822857460821904 0.128031605632978 0.21822857460823972 0.7680431431887463 -0.5233921264059235 -0.02410635445473549 0.08693497718951315
 0.12803160563298077 0.2182285746082375 0.12803160563298044 0.21822857460826622 -0.02410635445473546 0.08693497718951308 0.7680431431887931 -0.5233921264058374
34000000.0 0.7540544480597664 -0.5389012552378756 -0.015802729338119485 0.09931495139509616 0.13087414063916616 0.21979315192140475 0.13087414063916206 0.21979315192142349
 -0.015802729338119458 0.09931495139509615 0.754054448059831 -0.5389012552377664 0.13087414063915925 0.21979315192142573 0.13087414063916186 0.21979315192145277
 0.13087414063916605 0.2197931519214046 0.13087414063915925 0.2197931519214257 0.7624087441807716 -0.5285464069774368 -0.024157025459123693 0.08896010313465565
 0.130874140639162 0.21979315192142335 0.13087414063916175 0.21979315192145263 -0.024157025459123693 0.08896010313465562 0.7624087441808187 -0.5285464069773497
34500000.0 0.748207104002124 -0.5440098065098176 -0.01563653256732378 0.10139154061643516 0.13371471428258916 0.2213091329467066 0.13371471428258508 0.22130913294672572
 -0.015636532567323787 0.10139154061643511 0.7482071040021899 -0.5440098065097078 0.1337147142825822 0.22130913294672802 0.133714714282585 0.22130913294675555
 0.13371471428258905 0.22130913294670645 0.13371471428258222 0.22130913294672802 0.7567526750355874 -0.5336154215145722 -0.024182103600785973 0.09099715562118788
 0.13371471428258502 0.2213091329467256 0.13371471428258497 0.2213091329467554 -0.02418210360078597 0.09099715562118785 0.7567526750356356 -0.5336154215144846
35000000.0 0.742339542248637 -0.5490299089885483 -0.015444385378752876 0.10347566112532276 0.1365524215650469 0.22277712393162846 0.13655242156504285 0.22277712393164803
 -0.01544438537875285 0.10347566112532275 0.7423395422487044 -0.5490299089884378 0.13655242156503994 0.2227771239316504 0.1365524215650429 0.22277712393167834
 0.13655242156504682 0.22277712393162832 0.13655242156504 0.22277712393165047 0.7510764508926708 -0.5385996330045969 -0.02418129402278577 0.0930453851413695
 0.1365524215650428 0.22277712393164795 0.13655242156504283 0.22277712393167828 -0.024181294022785776 0.09304538514136945 0.7510764508927203 -0.5385996330045086
35500000.0 0.7364533231132854 -0.5539620728706312 -0.015226097146593412 0.10556658394254681 0.1393863870166427 0.22419774446405802 0.13938638701663866 0.22419774446407806
 -0.015226097146593393 0.1055665839425468 0.7364533231133542 -0.5539620728705199 0.13938638701663572 0.2241977444640805 0.13938638701663883 0.22419774446410887
 0.1393863870166426 0.22419774446405794 0.13938638701663575 0.22419774446408053 0.7453815559792689 -0.5434995296809295 -0.02415433001257646 0.09510404075284348
 0.1393863870166386 0.224197744464078 0.13938638701663877 0.2241977444641088 -0.024154330012576452 0.09510404075284344 0.7453815559793197 -0.5434995296808406
36000000.0 0.7305499747313419 -0.5588068339562119 -0.014981503792340223 0.10766358138892174 0.14221576453048743 0.22557162628366123 0.14221576453048337 0.22557162628368166
 -0.014981503792340194 0.10766358138892171 0.7305499747314119 -0.5588068339560998 0.14221576453048043 0.22557162628368418 0.14221576453048365 0.225571626283713
 0.14221576453048734 0.22557162628366112 0.14221576453048046 0.22557162628368424 0.7396694435202117 -0.5483156237058606 -0.024100972581208916 0.09717237113856841
 0.14221576453048332 0.22557162628368152 0.14221576453048362 0.2255716262837129 -0.02410097258120891 0.09717237113856839 0.739669443520263 -0.5483156237057708
36500000.0 0.7246309929800138 -0.5635647523099105 -0.014710467294047529 0.10976592805438229 0.1450397371570047 0.2268994121277806 0.1450397371570008 0.22689941212780157
 -0.014710467294047505 0.10976592805438222 0.7246309929800855 -0.5635647523097981 0.14503973715699775 0.22689941212780418 0.14503973715700128 0.2268994121278335
 0.1450397371570046 0.22689941212778053 0.14503973715699778 0.22689941212780418 0.7339415356941048 -0.5530484498822075 -0.024021010008137642 0.09924962562667726
 0.14503973715700066 0.22689941212780135 0.14503973715700116 0.22689941212783332 -0.024021010008137618 0.09924962562667719 0.7339415356941577 -0.5530484498821175
37000000.0 0.7186978414450401 -0.5682364109511372 -0.01441287516599281 0.11187290172593609 0.14785751686046375 0.22818175461261733 0.1478575168604598 0.22818175461263862
 -0.01441287516599278 0.11187290172593604 0.7186978414451131 -0.5682364109510238 0.14785751686045678 0.2281817546126413 0.1478575168604604 0.228181754612671
 0.14785751686046364 0.22818175461261714 0.14785751686045678 0.2281817546126413 0.7281992236333963 -0.5576985643949393 -0.023914257354347962 0.10133505516973607
 0.14785751686045967 0.22818175461263837 0.14785751686046036 0.22818175461267093 -0.02391425735434795 0.10133505516973602 0.7281992236334501 -0.5576985643948486
37500000.0 0.7127519514307595 -0.5728224145747954 -0.014088639911410057 0.11398378427418819 0.15066834424031245 0.2294193151503206 0.1506683442403085 0.22941931515034225
 -0.01408863991141005 0.11398378427418815 0.7127519514308339 -0.5728224145746813 0.15066834424030542 0.2294193151503451 0.15066834424030923 0.2294193151503752
 0.15066834424031236 0.22941931515032052 0.15066834424030548 0.22941931515034514 0.7224438674658219 -0.5622665435836397 -0.023780555946471247 0.10342791328303044
 0.15066834424030842 0.22941931515034217 0.15066834424030917 0.2294193151503751 -0.02378055594647123 0.1034279132830304 0.7224438674658765 -0.5622665435835484
38000000.0 0.7067947220111928 -0.5773233883031885 -0.013737698450882869 0.11609786249829038 0.1534714882198318 0.2306127629024663 0.15347148821982792 0.23061276290248847
 -0.013737698450882869 0.11609786249829035 0.7067947220112685 -0.5773233883030738 0.1534714882198248 0.2306127629024913 0.1534714882198289 0.23061276290252203
 0.1534714882198317 0.2306127629024662 0.15347148821982487 0.23061276290249144 0.7166767963948015 -0.5667529827465501 -0.023619772834490783 0.10552745694165003
 0.15347148821982784 0.2306127629024883 0.15347148821982878 0.23061276290252186 -0.02361977283449078 0.10552745694164993 0.7166767963948576 -0.5667529827464584
38500000.0 0.7008275201197406 -0.5817399764698059 -0.013360011528915658 0.1182144289293069 0.15626624570457404 0.23176277377026708 0.15626624570457018 0.23176277377028964
 -0.01336001152891566 0.1182144289293069 0.7008275201198175 -0.5817399764696906 0.15626624570456704 0.2317627737702926 0.15626624570457132 0.23176277377032367
 0.15626624570457393 0.23176277377026694 0.1562662457045671 0.2317627737702926 0.7108993088163994 -0.5711584949767823 -0.02343180022557351 0.10763294743628123
 0.15626624570457012 0.2317627737702895 0.15626624570457118 0.2317627737703235 -0.0234318002255735 0.10763294743628117 0.7108993088164564 -0.5711584949766899
39000000.0 0.6948516806751361 -0.5860728414355291 -0.012955563101124917 0.12033278259211028 0.15905194121298039 0.2328700294217273 0.15905194121297656 0.2328700294217502
 -0.012955563101124928 0.12033278259211029 0.6948516806752147 -0.5860728414354134 0.15905194121297347 0.23287002942175336 0.1590519412129779 0.23287002942178484
 0.1590519412129803 0.23287002942172716 0.1590519412129735 0.2328700294217534 0.7051126724705006 -0.5754837100311644 -0.023216554896488103 0.10974365118774325
 0.1590519412129765 0.23287002942175014 0.15905194121297775 0.23287002942178464 -0.023216554896488075 0.10974365118774321 0.7051126724705583 -0.5754837100310712
39500000.0 0.6888685067413608 -0.590322662437684 -0.012524359704411212 0.12245222972604126 0.16182792648151087 0.2339352163558396 0.1618279264815071 0.233935216355863
 -0.012524359704411195 0.12245222972604122 0.6888685067414408 -0.590322662437568 0.16182792648150401 0.23393521635586623 0.16182792648150865 0.23393521635589815
 0.16182792648151076 0.2339352163558395 0.16182792648150407 0.23393521635586628 0.6993181246239428 -0.5797292732320688 -0.02297397758699225 0.1118588405204236
 0.16182792648150704 0.23393521635586284 0.1618279264815085 0.23393521635589798 -0.02297397758699224 0.11185884052042355 0.6993181246240018 -0.5797292732319752
40000000.0 0.682879269719277 -0.5944901344722373 -0.012066429812387541 0.12457208446467276 0.16459358004654046 0.23495902500380084 0.16459358004653674 0.2349590250038246
 -0.012066429812387522 0.1245720844646727 0.6828792697193584 -0.5944901344721205 0.16459358004653363 0.23495902500382795 0.16459358004653848 0.23495902500386026
 0.16459358004654037 0.2349590250038007 0.1645935800465337 0.23495902500382806 0.6935168722833808 -0.5838958444024459 -0.02270403237649013 0.11397779439487891
 0.16459358004653665 0.23495902500382446 0.16459358004653835 0.2349590250038601 -0.022704032376490126 0.11397779439487885 0.6935168722834406 -0.5838958444023518
40500000.0 0.6768852095678132 -0.5985759672093343 -0.011581823178253814 0.12669166947512037 0.16734830680520518 0.23594214886712578 0.1673483068052015 0.23594214886714998
 -0.011581823178253792 0.12669166947512037 0.6768852095678959 -0.598575967209217 0.16734830680519838 0.23594214886715345 0.16734830680520338 0.2359421488671861
 0.16734830680520504 0.23594214886712564 0.16734830680519844 0.2359421488671535 0.6877100924357367 -0.5879840968341868 -0.022406706046176176 0.11609979909997072
 0.16734830680520146 0.2359421488671499 0.16734830680520327 0.23594214886718592 -0.022406706046176162 0.11609979909997065 0.6877100924357976 -0.5879840968340924
41000000.0 0.6708875350525831 -0.6025808839422726 -0.011070610167215908 0.12881031655743314 0.1700915375573009 0.23688528369243875 0.17009153755729736 0.23688528369246345
 -0.011070610167215904 0.1288103165574331 0.6708875350526669 -0.6025808839421547 0.17009153755729414 0.23688528369246697 0.17009153755729942 0.23688528369250014
 0.1700915375573008 0.23688528369243866 0.17009153755729423 0.23688528369246706 0.6818989323141628 -0.5919947162898409 -0.022082007428794626 0.11822414890499919
 0.17009153755729728 0.23688528369246334 0.17009153755729933 0.23688528369250003 -0.02208200742879463 0.11822414890499913 0.6818989323142248 -0.5919947162897459
41500000.0 0.6648874240199082 -0.6065056205699088 -0.010532881080457648 0.13092736720468123 0.17282272853025882 0.2377891266826332 0.17282272853025535 0.23778912668265825
 -0.010532881080457643 0.13092736720468118 0.6648874240199936 -0.6065056205697905 0.17282272853025218 0.2377891266826619 0.17282272853025765 0.23778912668269547
 0.1728227285302587 0.2377891266826331 0.1728227285302522 0.237789126682662 0.6760845096875063 -0.5959284000376144 -0.021729966748054743 0.1203501466723846
 0.17282272853025524 0.23778912668265814 0.17282272853025754 0.2377891266826953 -0.021729966748054733 0.12035014667238453 0.6760845096875693 -0.595928400037519
42000000.0 0.6588860236942718 -0.6103509246124114 -0.009968745472581473 0.13304217312443567 0.1755413608891384 0.2386543757440077 0.17554136088913497 0.23865437574403314
 -0.009968745472581456 0.13304217312443561 0.6588860236943587 -0.6103509246122928 0.17554136088913183 0.23865437574403695 0.17554136088913752 0.23865437574407092
 0.1755413608891383 0.23865437574400755 0.17554136088913191 0.23865437574403697 0.6702679131713433 -0.5997858559195037 -0.021350634949651743 0.12247710443152528
 0.1755413608891349 0.23865437574403303 0.1755413608891374 0.23865437574407075 -0.021350634949651726 0.1224771044315252 0.6702679131714074 -0.5997858559194078
42500000.0 0.6528844509973113 -0.6141175542601921 -0.009378331464340167 0.13515409672240186 0.1782469402334976 0.23948172876891524 0.17824694023349424 0.23948172876894117
 -0.009378331464340143 0.13515409672240183 0.6528844509973994 -0.6141175542600731 0.1782469402334911 0.23948172876894505 0.17824694023349702 0.2394817287689795
 0.17824694023349746 0.2394817287689151 0.17824694023349114 0.2394817287689451 0.6644502025587249 -0.6035678014523241 -0.020944083025752732 0.1246043439145313
 0.1782469402334942 0.23948172876894108 0.17824694023349694 0.23948172876897938 -0.020944083025752753 0.12460434391453125 0.6644502025587902 -0.6035678014522278
43000000.0 0.6468837928865226 -0.6178062774557732 -0.008761785052388943 0.13726251154903166 0.180938996082916 0.2402718829533911 0.18093899608291275 0.24027188295341756
 -0.008761785052388942 0.13726251154903163 0.6468837928866119 -0.6178062774556536 0.18093899608290956 0.24027188295342145 0.18093899608291575 0.24027188295345633
 0.1809389960829159 0.24027188295339108 0.1809389960829096 0.2402718829534215 0.6586324091688488 -0.6072749629613424 -0.02051040133471434 0.12673119705459848
 0.1809389960829126 0.24027188295341737 0.1809389960829156 0.24027188295345617 -0.02051040133471434 0.12673119705459837 0.6586324091689153 -0.6072749629612456
43500000.0 0.6408851067119371 -0.6214178710082827 -0.008119269417694768 0.13936680270999113 0.18361708135286142 0.24102553414916641 0.18361708135285823 0.24102553414919325
 -0.008119269417694764 0.13936680270999116 0.6408851067120275 -0.6214178710081626 0.18361708135285507 0.24102553414919722 0.18361708135286148 0.24102553414923253
 0.18361708135286134 0.2410255341491664 0.1836170813528551 0.2410255341491973 0.6528155362119523 -0.6109080747461355 -0.020049698917709486 0.1288570064478415
 0.18361708135285812 0.24102553414919312 0.1836170813528613 0.24102553414923228 -0.020049698917709472 0.1288570064478414 0.6528155362120195 -0.6109080747460383
44000000.0 0.6348894205890883 -0.6249531197402101 -0.007450964234146022 0.14146636724141187 0.18628077182251088 0.2417433762494202 0.1862807718225078 0.24174337624944742
 -0.007450964234146007 0.14146636724141187 0.6348894205891803 -0.6249531197400898 0.18628077182250466 0.2417433762494516 0.1862807718225113 0.24174337624948722
 0.18628077182251074 0.24174337624942002 0.18628077182250474 0.2417433762494516 0.6470005591687908 -0.6144678782782602 -0.01956210281384769 0.13098112577945933
 0.1862807718225077 0.24174337624944725 0.18628077182251115 0.24174337624948702 -0.019562102813847675 0.1309811257794593 0.6470005591688592 -0.6144678782781626
44500000.0 0.6288977337866798 -0.6284128156659955 -0.0067570649788155236 0.14356061445089136 0.1889296655960495 0.24242610060757347 0.18892966559604654 0.24242610060760117
 -0.006757064978815502 0.1435606144508913 0.6288977337867729 -0.6284128156658749 0.18892966559604343 0.2424261006076054 0.1889296655960503 0.2424261006076414
 0.18892966559604937 0.24242610060757336 0.18892966559604346 0.24242610060760542 0.6411884261831496 -0.6179551214302526 -0.01904775737528476 0.13310292021514575
 0.18892966559604646 0.242426100607601 0.1889296655960502 0.24242610060764128 -0.019047757375284764 0.13310292021514572 0.6411884261832193 -0.6179551214301546
45000000.0 0.6229110171274169 -0.6317977572019792 -0.006037782245239323 0.14564896622524645 0.19156338255889244 0.24307439548838825 0.19156338255888955 0.24307439548841633
 -0.006037782245239313 0.1456489662252464 0.6229110171275114 -0.631797757201858 0.19156338255888636 0.2430743954884206 0.19156338255889346 0.24307439548845705
 0.19156338255889233 0.2430743954883881 0.1915633825588864 0.24307439548842066 0.635380058465907 -0.6213705577354343 -0.018506823583728356 0.1352217667586986
 0.19156338255888944 0.24307439548841614 0.19156338255889338 0.2430743954884569 -0.018506823583728356 0.13522176675869851 0.6353800584659773 -0.6213705577353359
45500000.0 0.6169302134005626 -0.6351087484071968 -0.0052933410609841865 0.14773085730605157 0.19418156383019153 0.24368894555059484 0.19418156383018875 0.2436889455506233
 -0.00529334106098417 0.1477308573060515 0.6169302134006582 -0.6351087484070753 0.19418156383018564 0.24368894555062773 0.194181563830193 0.2436889455506646
 0.19418156383019136 0.24368894555059464 0.19418156383018575 0.24368894555062784 0.6295763507092371 -0.6247149456779604 -0.01793947836965792 0.13733705457681228
 0.19418156383018867 0.2436889455506232 0.1941815638301929 0.2436889455506645 -0.017939478369657938 0.13733705457681228 0.6295763507093086 -0.6247149456778618
46000000.0 0.6109562377848284 -0.6383465982544605 -0.004523980210691214 0.1498057355340171 0.19678387121291166 0.2442704313602442 0.19678387121290905 0.24427043136027315
 -0.004523980210691222 0.14980573553401708 0.6109562377849255 -0.638346598254339 0.19678387121290594 0.24427043136027773 0.19678387121291363 0.24427043136031498
 0.1967838712129116 0.24427043136024418 0.19678387121290605 0.2442704313602778 0.6237781715096307 -0.6279890480125117 -0.01734591393549261 0.1394481852920654
 0.19678387121290894 0.24427043136027304 0.1967838712129135 0.24427043136031476 -0.01734591393549261 0.13944818529206532 0.6237781715097028 -0.6279890480124126
46500000.0 0.6049899782802967 -0.6415121199311395 -0.0037299515656971116 0.15187306206328444 0.19936998664268002 0.24481952893395043 0.19936998664267747 0.2448195289339797
 -0.003729951565697066 0.1518730620632844 0.6049899782803954 -0.6415121199310176 0.19936998664267436 0.24481952893398443 0.19936998664268224 0.244819528934022
 0.19936998664267985 0.2448195289339502 0.1993699866426744 0.2448195289339844 0.617986363798456 -0.631193631112993 -0.016726337083855673 0.14155457324513496
 0.19936998664267738 0.24481952893397954 0.19936998664268213 0.24481952893402184 -0.016726337083855666 0.1415545732451349 0.6179863637985294 -0.6311936311128937
47000000.0 0.5990322961481348 -0.6446061301690172 -0.0029115194212519764 0.15393231154672488 0.20193961163653804 0.2453369093111696 0.20193961163653557 0.24533690931119925
 -0.002911519421251963 0.15393231154672482 0.5990322961482347 -0.6446061301688955 0.2019396116365325 0.24533690931120408 0.20193961163654062 0.24533690931124205
 0.20193961163653784 0.24533690931116944 0.2019396116365326 0.24533690931120414 0.6122017452788868 -0.6343294643495839 -0.01608096855200299 0.14365564572728845
 0.20193961163653548 0.2453369093111992 0.2019396116365405 0.24533690931124189 -0.01608096855200299 0.14365564572728842 0.6122017452789611 -0.6343294643494843
47500000.0 0.5930840263569264 -0.6476294486025849 -0.0020689598422732173 0.15598297229334263 0.2044924667426522 0.24582323815464474 0.20449246674264995 0.24582323815467497
 -0.0020689598422731874 0.1559829722933426 0.5930840263570276 -0.6476294486024626 0.20449246674264693 0.24582323815467988 0.2044924667426553 0.2458232381547182
 0.20449246674265215 0.24582323815464466 0.20449246674264698 0.24582323815467996 0.6064251088680566 -0.6373973194934598 -0.015410042353402346 0.14575084318421433
 0.20449246674264987 0.2458232381546748 0.20449246674265523 0.2458232381547182 -0.015410042353402386 0.14575084318421433 0.606425108868132 -0.6373973194933599
48000000.0 0.5871459780345227 -0.6505828971551015 -0.0012025600184957781 0.15802454639888597 0.2070282909919651 0.2462791753781319 0.20702829099196296 0.24627917537816246
 -0.0012025600184957538 0.15802454639888594 0.5871459780346248 -0.6505828971549789 0.20702829099195988 0.24627917537816746 0.2070282909919686 0.2462791753782062
 0.20702829099196496 0.24627917537813174 0.2070282909919599 0.2462791753781675 0.6006572231434025 -0.6403979701484801 -0.01471380512737479 0.1478396193922613
 0.2070282909919628 0.2462791753781623 0.20702829099196843 0.246279175378206 -0.014713805127374783 0.14783961939226128 0.6006572231434786 -0.6403979701483798
48500000.0 0.5812189349243649 -0.6534672994517415 -0.0003126176298049733 0.1600565498507705 0.20954684135269794 0.24670537480050994 0.209546841352696 0.24670537480054092
 -0.00031261762980495234 0.16005654985077045 0.5812189349244685 -0.6534672994516187 0.20954684135269286 0.24670537480054602 0.20954684135270182 0.24670537480058505
 0.20954684135269785 0.24670537480050986 0.20954684135269297 0.24670537480054608 0.5948988327921924 -0.6433321912091338 -0.013992515497631404 0.1499214416081595
 0.20954684135269588 0.2467053748005408 0.20954684135270174 0.24670537480058502 -0.013992515497631409 0.14992144160815946 0.5948988327922696 -0.6433321912090334
49000000.0 0.575303655845313 -0.6562834802591312 0.0006005597775348476 0.16207851260842063 0.21204789218855372 0.24710248382538014 0.2120478921885518 0.24710248382541156
 0.0006005597775348748 0.16207851260842057 0.5753036558454175 -0.6562834802590081 0.21204789218854886 0.24710248382541677 0.21204789218855816 0.24710248382545633
 0.21204789218855358 0.24710248382537997 0.21204789218854891 0.24710248382541686 0.5891506590633191 -0.6462007583440124 -0.013246443440470657 0.15199579069329835
 0.21204789218855166 0.2471024838254114 0.21204789218855793 0.2471024838254562 -0.013246443440470658 0.15199579069329833 0.5891506590633974 -0.6462007583439114
49500000.0 0.5694008751540488 -0.6590322649505682 0.0015366554031128494 0.16408997866012517 0.21453123472139615 0.24747114314524674 0.2145312347213945 0.2474711431452787
 0.001536655403112902 0.16408997866012512 0.569400875154155 -0.6590322649504451 0.21453123472139143 0.24747114314528387 0.21453123472140098 0.2474711431453238
 0.21453123472139599 0.24747114314524668 0.2145312347213915 0.24747114314528393 0.5834134002204904 -0.6490044475040784 -0.0124758696633277 0.15406216121363198
 0.21453123472139432 0.24747114314527843 0.21453123472140087 0.24747114314532373 -0.01247586966332772 0.15406216121363192 0.5834134002205698 -0.6490044475039773
50000000.0 0.5635113032092157 -0.6617144789962094 0.002495343792488146 0.16609050605749923 0.2169966764991246 0.24781198646938063 0.21699667649912313 0.24781198646941296
 0.00249534379248815 0.16609050605749917 0.5635113032093227 -0.6617144789960858 0.2169966764991201 0.24781198646941832 0.21699667649912988 0.24781198646945857
 0.21699667649912446 0.2478119864693805 0.21699667649912016 0.24781198646941835 0.5776877319960082 -0.651744034454991 -0.011681084994303493 0.15612006151627758
 0.216996676499123 0.2478119864694128 0.2169966764991298 0.24781198646945837 -0.011681084994303492 0.15612006151627747 0.5776877319960886 -0.6517440344548898
50500000.0 0.5576356268364745 -0.6643309474775061 0.0034762914246782625 0.16807966692862886 0.21944404086939975 0.24812564027446468 0.21944404086939825 0.2481256402744973
 0.0034762914246783037 0.1680796669286288 0.5576356268365829 -0.6643309474773825 0.21944404086939542 0.24812564027450287 0.21944404086940544 0.24812564027454342
 0.21944404086939961 0.24812564027446454 0.2194440408693955 0.2481256402745029 0.5719743080443889 -0.6544202943327442 -0.010862389783234958 0.15816901378386333
 0.21944404086939817 0.24812564027449716 0.21944404086940542 0.24812564027454337 -0.01086238978323497 0.1581690137838633 0.5719743080444698 -0.6544202943326425
51000000.0 0.5517745097937458 -0.6668824946251696 0.004479157286568433 0.1700570474709654 0.2218731664598186 0.24841272357712862 0.2218731664598173 0.24841272357716163
 0.004479157286568444 0.17005704747096534 0.5517745097938554 -0.6668824946250459 0.22187316645981447 0.24841272357716732 0.2218731664598248 0.24841272357720826
 0.22187316645981847 0.24841272357712843 0.22187316645981456 0.2484127235771673 0.5662737603951233 -0.6570340012218787 -0.01002009331480824 0.16020855406767076
 0.22187316645981717 0.24841272357716146 0.2218731664598247 0.24841272357720814 -0.01002009331480824 0.16020855406767073 0.5662737603952054 -0.6570340012217768
51500000.0 0.5459285932359346 -0.66936994337994 0.005503593433848189 0.17202224792501797 0.22428390666508377 0.248673847727488 0.22428390666508263 0.24867384772752138
 0.005503593433848251 0.17202224792501794 0.5459285932360455 -0.6693699433798163 0.22428390666507977 0.24867384772752713 0.22428390666509046 0.24867384772756843
 0.22428390666508358 0.2486738477274878 0.22428390666507983 0.24867384772752715 0.5605866999039401 -0.6595859277555288 -0.009154513234156317 0.1622382323006031
 0.2242839066650826 0.24867384772752124 0.22428390666509035 0.2486738477275683 -0.009154513234156333 0.16223823230060305 0.5605866999040231 -0.659585927755427
52000000.0 0.5400984961785006 -0.671794114975444 0.006549245538138929 0.17397488252987586 0.22667612914165491 0.24890961622281135 0.226676129141654 0.24890961622284524
 0.006549245538138907 0.1739748825298758 0.5400984961786127 -0.6717941149753199 0.22667612914165114 0.24890961622285107 0.2266761291416622 0.2489096162228929
 0.22667612914165478 0.24890961622281124 0.22667612914165114 0.2489096162228511 0.5549137167019688 -0.6620768447365675 -0.008265974985328462 0.16425761229099584
 0.2266761291416539 0.24890961622284516 0.22667612914166207 0.24890961622289276 -0.008265974985328448 0.16425761229099578 0.5549137167020529 -0.6620768447364654
52500000.0 0.5342848159592727 -0.6741558285424228 0.007615753420026628 0.17591457946157155 0.22904971531032453 0.2491206245404534 0.22904971531032375 0.24912062454048767
 0.00761575342002666 0.17591457946157146 0.5342848159593862 -0.6741558285422989 0.22904971531032103 0.24912062454049366 0.22904971531033233 0.24912062454053574
 0.2290497153103244 0.24912062454045322 0.22904971531032112 0.24912062454049372 0.5492553806422645 -0.6645075207791216 -0.007354811262964334 0.1662662716982665
 0.22904971531032364 0.24912062454048747 0.2290497153103322 0.2491206245405356 -0.007354811262964325 0.1662662716982664 0.5492553806423495 -0.6645075207790192
53000000.0 0.5284881286979641 -0.676455900733626 0.008702751567765484 0.17784098075527632 0.23140455986710892 0.2493074599892031 0.23140455986710828 0.2493074599892377
 0.008702751567765508 0.17784098075527624 0.5284881286980787 -0.6764559007335019 0.2314045598671056 0.2493074599892438 0.2314045598671171 0.2493074599892861
 0.23140455986710876 0.24930745998920295 0.2314045598671056 0.24930745998924383 0.5436122417431876 -0.6668787219697377 -0.0064213614774569616 0.16826380199138424
 0.2314045598671081 0.24930745998923753 0.23140455986711703 0.24930745998928608 -0.006421361477457002 0.1682638019913842 0.5436122417432732 -0.666878721969635
53500000.0 0.5227089897528784 -0.6786951453686637 0.00980986964146447 0.17975374221229454 0.23374057030280174 0.24947070157821316 0.23374057030280132 0.2494707015782483
 0.00980986964146447 0.1797537422122945 0.5227089897529942 -0.6786951453685393 0.2337405703027986 0.24947070157825446 0.23374057030281048 0.2494707015782972
 0.2337405703028016 0.24947070157821305 0.23374057030279866 0.24947070157825452 0.5379848306281827 -0.6691912115474887 -0.0054659712338388814 0.17024980839111592
 0.23374057030280126 0.24947070157824816 0.2337405703028103 0.249470701578297 -0.005465971233838886 0.1702498083911158 0.5379848306282695 -0.6691912115473861
54000000.0 0.5169479341743441 -0.6808743730981293 0.010936732962613133 0.1816525332928016 0.23605766643149423 0.24961091990269288 0.23605766643149403 0.24961091990272843
 0.010936732962613159 0.1816525332928015 0.5169479341744606 -0.680874373098005 0.23605766643149131 0.24961091990273457 0.23605766643150353 0.24961091990277767
 0.23605766643149412 0.2496109199026928 0.23605766643149145 0.2496109199027346 0.5323736589615411 -0.6714457496023173 -0.004488991824583221 0.17222390979698574
 0.2360576664314938 0.2496109199027282 0.23605766643150336 0.2496109199027775 -0.004488991824583241 0.17222390979698562 0.5323736589616287 -0.6714457496022141
54500000.0 0.5112054771544515 -0.6829943910863077 0.012082962988844691 0.18353703699524349 0.23835577992832413 0.24972867704556168 0.23835577992832407 0.2497286770455975
 0.012082962988844701 0.1835370369952434 0.5112054771545695 -0.6829943910861833 0.23835577992832144 0.24972867704560386 0.23835577992833396 0.24972867704564725
 0.23835577992832394 0.24972867704556148 0.23835577992832155 0.2497286770456039 0.526779219879765 -0.6736430927909296 -0.0034907797364681094 0.17418573869986148
 0.238355779928324 0.2497286770455974 0.23835577992833384 0.24972867704564722 -0.0034907797364681103 0.17418573869986145 0.5267792198798535 -0.6736430927908266
55000000.0 0.5054821144727101 -0.6850560027117991 0.013248177773874065 0.18540694972329227 0.2406348538766797 0.2498245264942834 0.24063485387667996 0.24982452649431977
 0.013248177773874083 0.18540694972329225 0.5054821144728289 -0.6850560027116747 0.2406348538766773 0.24982452649432613 0.24063485387669012 0.24982452649436995
 0.24063485387667954 0.24982452649428333 0.24063485387667738 0.24982452649432618 0.5212019884181963 -0.675783994069568 -0.0024716961716116305 0.17613494108105726
 0.24063485387667985 0.24982452649431966 0.24063485387669 0.24982452649436981 -0.0024716961716116275 0.1761349410810572 0.5212019884182859 -0.6757839940694649
55500000.0 0.49977832293726554 -0.6870600072853963 0.014431992412584296 0.1872619811412231 0.24289484232504638 0.24989901307211704 0.24289484232504677 0.24989901307215368
 0.01443199241258433 0.18726198114122306 0.4997783229373855 -0.6870600072852716 0.24289484232504413 0.24989901307216025 0.24289484232505726 0.24989901307220425
 0.24289484232504624 0.24989901307211693 0.24289484232504427 0.2498990130721603 0.515642421932601 -0.6778692024429923 -0.00143210658275042 0.17807117629881514
 0.24289484232504666 0.24989901307215354 0.2428948423250572 0.24989901307220422 -0.001432106582750423 0.17807117629881514 0.5156424219326912 -0.6778692024428892
56000000.0 0.4940945608213699 -0.6890071997845721 0.015634019471269037 0.18910185401855306 0.2451357098536513 0.2499526728830404 0.24513570985365196 0.24995267288307754
 0.01563401947126904 0.18910185401855306 0.4940945608214909 -0.6890071997844477 0.24513570985364944 0.24995267288308412 0.24513570985366287 0.24995267288312853
 0.24513570985365116 0.24995267288304027 0.24513570985364946 0.24995267288308404 0.5101009605154363 -0.6798994627290315 -0.00037238022279677095 0.1799941169630083
 0.2451357098536519 0.24995267288307746 0.24513570985366276 0.2499526728831284 -0.00037238022279678624 0.17999411696300827 0.5101009605155278 -0.679899462728928
56500000.0 0.48843126829481015 -0.6908983706039431 0.016853869403070758 0.19092630406475397 0.24735743115102982 0.24998603326962593 0.24735743115103057 0.24998603326966337
 0.016853869403070737 0.19092630406475392 0.48843126829493266 -0.6908983706038185 0.24735743115102807 0.24998603326967017 0.24735743115104186 0.24998603326971489
 0.24735743115102965 0.24998603326962585 0.2473574311510282 0.24998603326967023 0.5045780274065603 -0.6818755153380683 0.0007071102913213245 0.18190344879887513
 0.24735743115103045 0.2499860332696633 0.24735743115104167 0.2499860332697147 0.0007071102913213069 0.18190344879887502 0.5045780274066523 -0.6818755153379648
57000000.0 0.48278886785004316 -0.6927343053210903 0.018091150948684145 0.19273507975482368 0.24955999060060613 0.24999961278316518 0.24955999060060716 0.24999961278320307
 0.018091150948684156 0.1927350797548236 0.4827888678501664 -0.6927343053209658 0.2495599906006046 0.24999961278320978 0.2495599906006188 0.2499996127832549
 0.2495599906006059 0.24999961278316504 0.24955999060060471 0.24999961278320984 0.4990740293981636 -0.6837980960668457 0.0018059894005644425 0.18379887050057492
 0.249559990600607 0.2499996127832029 0.24955999060061865 0.24999961278325472 0.001805989400564418 0.18379887050057483 0.49907402939825646 -0.683798096066742
57500000.0 0.4771677647228087 -0.6945157844771342 0.019345471522419777 0.19452794214647273 0.2517433818773551 0.2499939211653632 0.25174338187735634 0.2499939211654014
 0.019345471522419798 0.19452794214647268 0.4771677647229328 -0.6945157844770097 0.25174338187735396 0.24999392116540822 0.2517433818773683 0.24999392116545358
 0.25174338187735495 0.24999392116536304 0.251743381877354 0.24999392116540825 0.49358935723374525 -0.6856679359059886 0.0029238790114838866 0.18568009357532275
 0.2517433818773562 0.2499939211654012 0.2517433818773681 0.24999392116545338 0.0029238790114838975 0.18568009357532267 0.49358935723383884 -0.6856679359058847
58000000.0 0.47156834730701774 -0.6962435833714754 0.020616437583750195 0.19630466468965477 0.2539076075545848 0.24996945934094317 0.2539076075545863 0.2499694593409819
 0.020616437583750206 0.19630466468965466 0.4715683473071434 -0.6962435833713508 0.2539076075545839 0.2499694593409888 0.2539076075545987 0.24996945934103454
 0.2539076075545846 0.24996945934094295 0.25390760755458397 0.2499694593409888 0.4881243860009643 -0.6874857608606649 0.00406039888980405 0.1875468421788399
 0.25390760755458613 0.2499694593409817 0.25390760755459857 0.24996945934103443 0.004060398889804025 0.18754684217883985 0.48812438600105934 -0.687485760860561
58500000.0 0.4659909875637431 -0.6979184718701255 0.021903654994481735 0.19806503302914077 0.2560526787208558 0.24992671942052566 0.2560526787208576 0.24992671942056477
 0.021903654994481762 0.19806503302914072 0.46599098756386964 -0.697918471870001 0.2560526787208552 0.24992671942057176 0.2560526787208703 0.24992671942061778
 0.25605267872085563 0.24992671942052558 0.2560526787208553 0.2499267194205719 0.48267947551823687 -0.6892522917838142 0.005215167039988501 0.18939885294282516
 0.2560526787208575 0.24992671942056457 0.2560526787208701 0.2499267194206176 0.005215167039988508 0.18939885294282505 0.4826794755183324 -0.6892522917837104
59000000.0 0.4604360414241529 -0.6995412142270759 0.02320672936171804 0.19980884480081249 0.25817861460703234 0.24986618471316543 0.2581786146070342 0.24986618471320488
 0.02320672936171803 0.19980884480081249 0.46043604142428046 -0.699541214226951 0.25817861460703195 0.24986618471321206 0.25817861460704733 0.24986618471325833
 0.2581786146070321 0.24986618471316535 0.2581786146070319 0.24986618471321198 0.4772549707149541 -0.6909682442213972 0.006387800070917326 0.19123587479512952
 0.2581786146070341 0.24986618471320474 0.2581786146070471 0.2498661847132582 0.0063878000709173 0.1912358747951295 0.47725497071505074 -0.6909682442212931
59500000.0 0.45490384918626187 -0.7011125689181548 0.024525266366798987 0.20153590942231608 0.26028544222343675 0.2497883297479536 0.2602854422234389 0.24978832974799337
 0.02452526636679898 0.20153590942231608 0.45490384918639065 -0.7011125689180303 0.26028544222343675 0.24978832974800066 0.26028544222345246 0.24978832974804724
 0.2602854422234366 0.2497883297479535 0.2602854422234368 0.2497883297480007 0.4718512020052385 -0.69263432826913 0.007577913547822901 0.1930576687732868
 0.26028544222343875 0.24978832974799323 0.2602854422234523 0.24978832974804707 0.007577913547822893 0.19305766877328673 0.47185120200533576 -0.6926343282690258
60000000.0 0.4493947359053855 -0.7026332884868556 0.02585887208041706 0.20324604787869802 0.26237319600706543 0.24969362030411354 0.2623731960070678 0.2496936203041537
 0.025858872080417056 0.20324604787869793 0.4493947359055152 -0.7026332884867309 0.2623731960070656 0.24969362030416103 0.26237319600708164 0.24969362030420786
 0.2623731960070653 0.2496936203041135 0.2623731960070657 0.2496936203041611 0.46646848565515414 -0.6942512484401914 0.008785122330649058 0.19486400783202948
 0.26237319600706765 0.2496936203041535 0.26237319600708153 0.24969362030420778 0.008785122330649035 0.1948640078320294 0.46646848565525223 -0.6942512484400871
60500000.0 0.44390901177820474 -0.7041041194016174 0.0272071532641285 0.20493909250361061 0.2644419174787996 0.24958251344903876 0.2644419174788023 0.24958251344907936
 0.02720715326412851 0.2049390925036105 0.44390901177833536 -0.7041041194014932 0.26444191747880014 0.24958251344908663 0.26444191747881657 0.24958251344913387
 0.2644419174787994 0.24958251344903862 0.2644419174788002 0.24958251344908663 0.46110712414331656 -0.6958197035434013 0.010009040899016879 0.19665467664538994
 0.26444191747880214 0.2495825134490791 0.26444191747881635 0.24958251344913368 0.010009040899016872 0.19665467664538985 0.46110712414341565 -0.6958197035432971
61000000.0 0.4384469725203685 -0.7055258019240731 0.028569717658490326 0.20661488675665374 0.2664916549105363 0.24945545758374554 0.2664916549105391 0.24945545758378646
 0.028569717658490326 0.20661488675665368 0.4384469725205002 -0.7055258019239486 0.2664916549105371 0.249455457583794 0.2664916549105538 0.2494554575838414
 0.26649165491053617 0.24945545758374543 0.2664916549105371 0.24945545758379395 0.45576740651486586 -0.6973403865713891 0.011249283663993496 0.1984294714039651
 0.26649165491053906 0.24945545758378637 0.2664916549105537 0.2494554575838413 0.011249283663993475 0.19842947140396505 0.45576740651496556 -0.6973403865712845
61500000.0 0.4330088997375742 -0.7068990699877763 0.02994617425806774 0.20827328499738837 0.2685224630021441 0.2493128924952303 0.26852246300214727 0.24931289249527167
 0.029946174258067764 0.20827328499738829 0.4330088997377072 -0.7068990699876521 0.26852246300214516 0.24931289249527916 0.2685224630021623 0.24931289249532698
 0.2685224630021439 0.24931289249523017 0.26852246300214533 0.24931289249527924 0.4504496087287661 -0.6988139845982859 0.012505465266876337 0.20018819960789352
 0.26852246300214716 0.24931289249527144 0.2685224630021622 0.24931289249532682 0.012505465266876329 0.2001881996078934 0.4504496087288669 -0.6988139845981817
62000000.0 0.42759506129008423 -0.7082246510869546 0.031336133573565836 0.20991415225653554 0.27053440256813954 0.2491552494152464 0.270534402568143 0.2491552494152879
 0.03133613357356584 0.2099141522565355 0.4275950612902179 -0.7082246510868302 0.270534402568141 0.24915524941529577 0.2705344025681584 0.2491552494153437
 0.27053440256813943 0.24915524941524636 0.270534402568141 0.24915524941529577 0.4451539939984362 -0.7002411786864947 0.013777200865214343 0.20193067985607127
 0.2705344025681429 0.24915524941528783 0.2705344025681583 0.24915524941534362 0.013777200865214272 0.20193067985607122 0.44515399399853756 -0.7002411786863905
62500000.0 0.4222057116506455 -0.7095032661748346 0.03273920788135107 0.2115373640048466 0.27252754023396575 0.2489829510850313 0.2725275402339693 0.24898295108507335
 0.03273920788135107 0.21153736400484657 0.42220571165078047 -0.7095032661747102 0.27252754023396747 0.24898295108508112 0.27252754023398534 0.2489829510851295
 0.27252754023396564 0.2489829510850312 0.2725275402339676 0.24898295108508114 0.43988081312569505 -0.7016226438021013 0.015064106406302099 0.20365674163210865
 0.27252754023396925 0.24898295108507318 0.2725275402339851 0.2489829510851293 0.015064106406302078 0.20365674163210853 0.4398808131257974 -0.7016226438019967
63000000.0 0.41684109225580346 -0.7107356295711091 0.03415501146063538 0.21314280592010668 0.2745019481417441 0.24879641182553924 0.27450194814174805 0.24879641182558163
 0.034155011460635425 0.21314280592010657 0.41684109225593957 -0.7107356295709852 0.27450194814174617 0.24879641182558943 0.2745019481417644 0.24879641182563803
 0.27450194814174395 0.24879641182553913 0.2745019481417462 0.2487964118255895 0.4346303048280501 -0.7029590487385107 0.016365798888389006 0.20536622508750324
 0.27450194814174783 0.2487964118255814 0.27450194814176415 0.24879641182563794 0.016365798888388995 0.20536622508750313 0.43463030482815346 -0.7029590487384062
63500000.0 0.41150143185059745 -0.7119224488781335 0.03558316081860213 0.21473037365271017 0.2764577036653634 0.24859603761275006 0.2764577036653676 0.24859603761279278
 0.0355831608186021 0.21473037365271008 0.411501431850734 -0.7119224488780094 0.27645770366536565 0.24859603761280072 0.2764577036653841 0.24859603761284954
 0.2764577036653632 0.24859603761275004 0.2764577036653657 0.24859603761280075 0.42940269605934384 -0.7042510560479132 0.017681896609855825 0.20705898082248525
 0.2764577036653673 0.2485960376127927 0.27645770366538397 0.24859603761284946 0.01768189660985581 0.20705898082248517 0.42940269605944775 -0.7042510560478086
64000000.0 0.40618694682665024 -0.7130644249054393 0.03702327490376043 0.21629997259022188 0.2783948891347573 0.2483822261576477 0.2783948891347617 0.24838222615769082
 0.03702327490376039 0.2162999725902218 0.40618694682678785 -0.7130644249053153 0.27839488913475974 0.24838222615769878 0.2783948891347787 0.2483822261577479
 0.2783948891347572 0.24838222615764768 0.27839488913475985 0.2483822261576988 0.424198202323793 -0.7054993219801865 0.019012019406617738 0.20873486966496435
 0.27839488913476146 0.24838222615769065 0.2783948891347785 0.24838222615774777 0.019012019406617675 0.20873486966496418 0.42419820232389777 -0.7054993219800818
64500000.0 0.40089784155366703 -0.7141622516021919 0.03847497530781954 0.2178515176213158 0.2803135915692188 0.24815536699047758 0.2803135915692235 0.24815536699052088
 0.03847497530781953 0.21785151762131574 0.4008978415538055 -0.7141622516020679 0.28031359156922164 0.24815536699052898 0.28031359156924085 0.24815536699057836
 0.28031359156921876 0.24815536699047758 0.2803135915692218 0.24815536699052904 0.41901702798346857 -0.7067044964288683 0.02035578887801807 0.21039376244798752
 0.2803135915692233 0.24815536699052085 0.2803135915692407 0.24815536699057827 0.020355788878018023 0.2103937624479874 0.41901702798357404 -0.7067044964287638
65000000.0 0.39563430870436755 -0.715216615997204 0.03993788645637643 0.21938493289946065 0.2822139024195895 0.2479158415489119 0.2822139024195943 0.24791584154895566
 0.03993788645637646 0.21938493289946054 0.39563430870450733 -0.7152166159970804 0.28221390241959277 0.2479158415489638 0.2822139024196123 0.2479158415490134
 0.28221390241958927 0.24791584154891175 0.2822139024195928 0.24791584154896382 0.41385936655926064 -0.7078672228838432 0.02171282860148351 0.21203553978609477
 0.2822139024195942 0.24791584154895546 0.28221390241961214 0.24791584154901333 0.021712828601483533 0.2120355397860947 0.4138593665593671 -0.7078672228837385
65500000.0 0.3903965295728894 -0.7162281981461585 0.04141163578871585 0.2209001516067001 0.28409591731915823 0.2476640232697699 0.28409591731916345 0.24766402326981396
 0.04141163578871584 0.22090015160669998 0.3903965295730303 -0.7162281981460348 0.2840959173191618 0.24766402326982231 0.2840959173191819 0.24766402326987214
 0.28409591731915806 0.24766402326976986 0.28409591731916195 0.24766402326982234 0.40872540102539073 -0.7089881383904011 0.02308276433621485 0.213660091850938
 0.2840959173191633 0.24766402326981377 0.28409591731918166 0.24766402326987205 0.023082764336214832 0.21366009185093796 0.40872540102549776 -0.7089881383902968
66000000.0 0.38518467438670095 -0.7171976710856842 0.04289585392702136 0.222397115717855 0.28595973584309914 0.24740027768395603 0.2859597358431046 0.24740027768400036
 0.04289585392702139 0.22239711571785492 0.38518467438684256 -0.717197671085561 0.28595973584310314 0.24740027768400874 0.2859597358431234 0.2474002776840588
 0.28595973584309897 0.2474002776839559 0.28595973584310325 0.2474002776840087 0.4036153040975339 -0.7100678735143431 0.02446522421618887 0.21526731814650882
 0.28595973584310447 0.2474002776840002 0.2859597358431232 0.24740027768405873 0.024465224216188852 0.21526731814650873 0.4036153040976418 -0.7100678735142386
66500000.0 0.37999890261207503 -0.718125700793963 0.044390174835299945 0.2238757757654546 0.28780546127627243 0.24712496251429614 0.28780546127627815 0.24712496251434088
 0.044390174835299986 0.22387577576545448 0.37999890261221764 -0.7181257007938397 0.2878054612762767 0.2471249625143493 0.2878054612762973 0.2471249625143996
 0.2878054612762722 0.247124962514296 0.28780546127627676 0.24712496251434932 0.3985292385146222 -0.7111070523128139 0.02585983893275296 0.2168571272843005
 0.28780546127627793 0.24712496251434066 0.287805461276297 0.2471249625143995 0.02585983893275291 0.2168571272843004 0.39852923851473077 -0.7111070523127094
67000000.0 0.37483936325317757 -0.7190129461575365 0.04589423596831983 0.22533609060568174 0.2896332003892106 0.24683842777596965 0.28963320038921664 0.2468384277760149
 0.04589423596831981 0.22533609060568163 0.37483936325332085 -0.7190129461574131 0.2896332003892152 0.24683842777602333 0.2896332003892361 0.246838427776074
 0.28963320038921037 0.24683842777596962 0.2896332003892153 0.24683842777602338 0.39346735731440524 -0.7121062923105699 0.027266241907092172 0.21842943675871027
 0.2896332003892164 0.24683842777601472 0.2896332003892359 0.24683842777607382 0.02726624190709215 0.2184294367587102 0.39346735731451477 -0.7121062923104652
67500000.0 0.36970619514483366 -0.7198600589440171 0.047407678410864476 0.226778027185605 0.2914430632221099 0.24654101587924918 0.2914430632221162 0.24654101587929458
 0.04740767841086451 0.22677802718560486 0.36970619514497793 -0.719860058943894 0.2914430632221148 0.24654101587930305 0.29144306322213615 0.2465410158793539
 0.29144306322210967 0.24654101587924904 0.2914430632221149 0.24654101587930313 0.38842980410284694 -0.7130662044813871 0.02868406945285108 0.21998417272296986
 0.29144306322211605 0.2465410158792944 0.2914430632221359 0.24654101587935384 0.02868406945285104 0.21998417272296975 0.38842980410295724 -0.7130662044812827
68000000.0 0.3645995272390328 -0.7206676837804011 0.04893014700760193 0.2282015603119424 0.293235162876641 0.24623306173427303 0.2932351628766475 0.24623306173431872
 0.04893014700760198 0.2282015603119424 0.364599527239178 -0.720667683780278 0.2932351628766462 0.24623306173432735 0.2932351628766679 0.24623306173437837
 0.2932351628766408 0.24623306173427284 0.29323516287664625 0.2462330617343273 0.3834167133174432 -0.7139873932343367 0.030112960929191603 0.22152126976587286
 0.2932351628766474 0.24623306173431858 0.29323516287666773 0.24623306173437828 0.030112960929191586 0.22152126976587286 0.3834167133175541 -0.7139873932342322
68500000.0 0.3595194788852495 -0.7214364581367029 0.05046129048386976 0.22960667242159566 0.29500961531539815 0.24591489285759782 0.2950096153154049 0.2459148928576438
 0.05046129048386975 0.2296066724215956 0.3595194788853957 -0.7214364581365801 0.2950096153154037 0.24591489285765258 0.29500961531542574 0.24591489285770385
 0.2950096153153979 0.2459148928575977 0.2950096153154037 0.2459148928576526 0.37842821048454905 -0.7148704564046658 0.0315525588845703 0.22304067068955366
 0.2950096153154048 0.24591489285764367 0.2950096153154256 0.2459148928577037 0.03155255888457032 0.22304067068955358 0.3784282104846606 -0.7148704564045616
69000000.0 0.354466160104648 -0.7221670123146399 0.05200076155767076 0.2309933533541653 0.2967665391687979 0.24558682948028224 0.296766539168805 0.24558682948032856
 0.052000761557670735 0.23099335335416518 0.35446616010479504 -0.7221670123145175 0.2967665391688039 0.24558682948033736 0.2967665391688263 0.24558682948038887
 0.2967665391687977 0.24558682948028213 0.29676653916880397 0.24558682948033736 0.3734644124708052 -0.7157159852490305 0.033002509191513624 0.22454232628855042
 0.2967665391688048 0.24558682948032837 0.29676653916882617 0.24558682948038876 0.03300250919151359 0.22454232628855036 0.37346441247091766 -0.7157159852489261
69500000.0 0.3494396718582522 -0.7228599694411075 0.05354821704317594 0.2323616001266504 0.29850605554924275 0.245249184657274 0.29850605554925025 0.24524918465732065
 0.05354821704317593 0.23236160012665036 0.34943967185839986 -0.7228599694409851 0.29850605554924914 0.24524918465732945 0.29850605554927184 0.24524918465738121
 0.2985060555492426 0.24524918465727394 0.29850605554924925 0.24524918465732953 0.3685254277287571 -0.7165245644448368 0.034462461172670725 0.22602619513037436
 0.29850605554924997 0.24524918465732048 0.2985060555492716 0.24524918465738108 0.034462461172670704 0.2260261951303743 0.36852542772887015 -0.7165245644447324
70000000.0 0.34444010630916055 -0.7235159454661919 0.05510331794602449 0.23371141671051673 0.3002282878723637 0.24490226437788382 0.30022828787237144 0.2449022643779307
 0.055103317946024494 0.23371141671051665 0.34444010630930905 -0.7235159454660697 0.3002282878723703 0.2449022643779396 0.30022828787239353 0.24490226437799162
 0.30022828787236355 0.24490226437788365 0.30022828787237044 0.24490226437793963 0.36361135653676235 -0.71729677209347 0.03593206771842262 0.22749224333778945
 0.30022828787237127 0.24490226437793053 0.30022828787239325 0.24490226437799142 0.03593206771842259 0.2274922433377893 0.36361135653687615 -0.7172967720933657
70500000.0 0.33946754707889143 -0.7241355491654873 0.0566657295507102 0.2350428138113014 0.3019333616851549 0.24454636767713955 0.30193336168516294 0.2445463676771869
 0.05666572955071016 0.23504281381130135 0.3394675470790408 -0.7241355491653653 0.301933361685162 0.24454636767719576 0.30193336168518553 0.24454636767724808
 0.30193336168515467 0.2445463676771395 0.3019333616851621 0.24454636767719581 0.3587222912332817 -0.7180331797271801 0.0374109853963194 0.2289404443729888
 0.3019333616851628 0.24454636767718677 0.3019333616851853 0.24454636767724788 0.03741098539631938 0.2289404443729887 0.35872229123339644 -0.7180331797270757
71000000.0 0.3345220694979403 -0.7247193821464812 0.05823512150033706 0.23635580865091194 0.30362140450081654 0.2441817867478319 0.30362140450082487 0.24418178674787958
 0.05823512150033703 0.23635580865091185 0.3345220694980905 -0.7247193821463592 0.3036214045008239 0.24418178674788854 0.3036214045008478 0.24418178674794094
 0.3036214045008164 0.2441817867478319 0.30362140450082403 0.2441817867478886 0.3538583164456579 -0.7187343523194234 0.03889887455261919 0.23037077882384888
 0.3036214045008247 0.24418178674787938 0.3036214045008477 0.24418178674794078 0.03889887455261912 0.23037077882384882 0.3538583164457731 -0.7187343523193194
71500000.0 0.3296037408506425 -0.7252680388587948 0.05981116786902612 0.23765042475275922 0.30529254564012026 0.24380880705306576 0.305292545640129 0.24380880705311372
 0.05981116786902609 0.2376504247527592 0.32960374085079375 -0.7252680388586731 0.30529254564012814 0.2438088070531228 0.30529254564015235 0.24380880705317548
 0.30529254564012015 0.24380880705306568 0.30529254564012825 0.24380880705312286 0.34901950931347153 -0.7194008482984575 0.04039539940619674 0.23178323419241645
 0.3052925456401288 0.24380880705311356 0.30529254564015207 0.2438088070531752 0.04039539940619678 0.23178323419241637 0.3490195093135877 -0.7194008482983534
72000000.0 0.32471262061442613 -0.7257821066080649 0.06139354722724818 0.23892669172985606 0.3069469160791169 0.24342770743915298 0.3069469160791258 0.24342770743920117
 0.0613935472272482 0.23892669172985595 0.3247126206145781 -0.7257821066079431 0.306946916079125 0.2434277074392103 0.30694691607914953 0.24342770743926312
 0.3069469160791167 0.24342770743915285 0.3069469160791251 0.24342770743921033 0.3442059397065869 -0.7200332195639969 0.04190022813508742 0.23317780468578256
 0.3069469160791256 0.24342770743920095 0.30694691607914937 0.243427707439263 0.04190022813508736 0.23317780468578245 0.34420593970670343 -0.7200332195638928
72500000.0 0.31984876069354873 -0.7262621655732655 0.06298194270035375 0.24018464507599574 0.3085846483030024 0.24303876024868407 0.3085846483030116 0.24303876024873244
 0.06298194270035369 0.24018464507599568 0.3198487606937015 -0.7262621655731442 0.3085846483030109 0.24303876024874183 0.3085846483030358 0.24303876024879476
 0.3085846483030022 0.24303876024868398 0.30858464830301097 0.24303876024874177 0.3394176704379765 -0.7206320115067516 0.043413032955925614 0.23455449100947645
 0.3085846483030114 0.24303876024873236 0.30858464830303567 0.2430387602487946 0.04341303295592556 0.23455449100947634 0.33941767043809395 -0.7206320115066478
73000000.0 0.3150122056474076 -0.7267087888272808 0.06457604202056624 0.24142432596011706 0.3102058761659662 0.2426422314336319 0.3102058761659758 0.24264223143368072
 0.06457604202056626 0.24142432596011693 0.3150122056475612 -0.7267087888271597 0.3102058761659751 0.24264223143368988 0.3102058761660003 0.24264223143374308
 0.310205876165966 0.2426422314336317 0.3102058761659752 0.24264223143368982 0.3346547574714358 -0.7211977630306746 0.04493349019653762 0.23591330016350495
 0.3102058761659755 0.2426422314336804 0.31020587616600015 0.24264223143374294 0.044933490196537675 0.23591330016350487 0.334654757471554 -0.7211977630305706
73500000.0 0.3102029929135183 -0.7271225423605415 0.06617553757270138 0.24264578102394863 0.31181073475684273 0.24223838066834713 0.31181073475685245 0.24223838066839615
 0.06617553757270139 0.24264578102394857 0.3102029929136727 -0.7271225423604206 0.311810734756852 0.2422383806684055 0.3118107347568776 0.24223838066845885
 0.31181073475684246 0.2422383806683469 0.311810734756852 0.2422383806684055 0.3299172501242794 -0.721731006577749 0.046461280361939875 0.23725424524115032
 0.31181073475685234 0.24223838066839593 0.31181073475687743 0.24223838066845868 0.046461280361939895 0.2372542452411502 0.3299172501243982 -0.7217310065776452
74000000.0 0.3054211530252532 -0.7275039851075504 0.06778012643386563 0.24384906218301744 0.31339936027039267 0.24182746146231768 0.3133993602704027 0.2418274614623669
 0.06778012643386565 0.24384906218301733 0.30542115302540834 -0.7275039851074295 0.3133993602704024 0.24182746146237644 0.31339936027042814 0.2418274614624298
 0.31339936027039245 0.24182746146231757 0.3133993602704024 0.24182746146237644 0.32520519126512754 -0.7222322681551673 0.047996088193990726 0.2385773452306286
 0.3133993602704025 0.2418274614623668 0.3133993602704281 0.24182746146242987 0.04799608819399069 0.23857734523062857 0.32520519126524694 -0.7222322681550634
74500000.0 0.30066670982443333 -0.7278536689761275 0.06938951040738658 0.24503422643109196 0.31497188988404146 0.2414097212725695 0.31497188988405184 0.24140972127261914
 0.0693895104073866 0.24503422643109196 0.3006667098245893 -0.7278536689760071 0.31497188988405156 0.24140972127262864 0.3149718898840778 0.24140972127268237
 0.3149718898840413 0.24140972127256943 0.31497188988405167 0.24140972127262866 0.3205186175068791 -0.7227020673647419 0.04953760272494027 0.2398826248197007
 0.3149718898840517 0.241409721272619 0.31497188988407765 0.2414097212726822 0.04953760272494019 0.23988262481970055 0.32051861750699934 -0.722702067364638
75000000.0 0.2959396806688688 -0.7281721388792183 0.07100339605121962 0.2462013356481266 0.31652846163990667 0.24098540161559817 0.3165284616399175 0.24098540161564808
 0.07100339605121968 0.24620133564812652 0.29593968066902576 -0.7281721388790977 0.31652846163991705 0.24098540161565762 0.31652846163994386 0.24098540161571158
 0.31652846163990656 0.24098540161559814 0.3165284616399172 0.2409854016156577 0.3158575593949715 -0.7231409174344146 0.051085517325116445 0.24117011420331744
 0.31652846163991727 0.24098540161564788 0.3165284616399437 0.24098540161571147 0.05108551732511643 0.24117011420331724 0.3158575593950923 -0.7231409174343112
75500000.0 0.29124007663493967 -0.7284599327691039 0.07262149470106917 0.24735045641175862 0.31806921433194607 0.24055473817872566 0.31806921433195695 0.2405547381787758
 0.07262149470106917 0.2473504564117586 0.2912400766350971 -0.7284599327689836 0.3180692143319568 0.24055473817878553 0.31806921433198365 0.24055473817883952
 0.3180692143319459 0.24055473817872566 0.3180692143319568 0.24055473817878548 0.31122204159102707 -0.7235493252517239 0.05263952974498121 0.24243984889437295
 0.3180692143319569 0.24055473817877573 0.31806921433198354 0.24055473817883946 0.0526395297449812 0.2424398488943729 0.31122204159114836 -0.7235493252516202
76000000.0 0.2865679027153108 -0.7287175816738752 0.07424352248845928 0.2484816598124078 0.3195942873980649 0.2401179609307876 0.3195942873980762 0.24011796093083798
 0.0742435224884593 0.24848165981240777 0.28656790271546895 -0.7287175816737552 0.319594287398076 0.2401179609308476 0.31959428739810347 0.24011796093090199
 0.3195942873980647 0.2401179609307875 0.3195942873980761 0.2401179609308476 0.3066120830519838 -0.7239277913991033 0.054199342151785686 0.24369186953763008
 0.31959428739807605 0.24011796093083784 0.3195942873981032 0.2401179609309018 0.05419934215178568 0.24369186953762995 0.30661208305210585 -0.7239277913989998
76500000.0 0.281923158011876 -0.728945609736023 0.07586920035398043 0.24959502127201166 0.32110382081702116 0.23967529423206024 0.32110382081703276 0.23967529423211076
 0.07586920035398041 0.24959502127201155 0.28192315801203494 -0.728945609735903 0.3211038208170326 0.2396752942321206 0.32110382081706046 0.23967529423217498
 0.3211038208170208 0.23967529423206005 0.3211038208170327 0.23967529423212064 0.3020276972048092 -0.7242768101908885 0.05576466116104674 0.24492622172687148
 0.3211038208170326 0.23967529423211067 0.3211038208170602 0.23967529423217487 0.05576466116104671 0.24492622172687142 0.30202769720493194 -0.7242768101907853
77000000.0 0.27730583592402164 -0.7291445342530145 0.07749825405593437 0.25069062036643125 0.3225979550099708 0.23922695694334667 0.32259795500998284 0.23922695694339768
 0.0774982540559344 0.2506906203664312 0.27730583592418145 -0.7291445342528948 0.3225979550099826 0.23922695694340743 0.322597955010011 0.23922695694346213
 0.3225979550099707 0.23922695694334667 0.32259795500998273 0.23922695694340754 0.29746889211689026 -0.724596869711917 0.05733519786306495 0.24614295582532805
 0.32259795500998273 0.23922695694339757 0.32259795501001065 0.239226956943462 0.05733519786306495 0.24614295582532789 0.2974688921170137 -0.7245968697118137
77500000.0 0.272715924332302 -0.7293148657197285 0.07913041417459335 0.25176854065154736 0.3240768307465008 0.23877316253414646 0.324076830746513 0.2387731625341976
 0.07913041417459331 0.25176854065154725 0.2727159243324624 -0.729314865719609 0.32407683074651294 0.23877316253420747 0.3240768307465414 0.23877316253426228
 0.32407683074650057 0.23877316253414638 0.3240768307465131 0.23877316253420747 0.2929356706621991 -0.7248884518576085 0.05891066784469547 0.24734212678942152
 0.32407683074651283 0.23877316253419756 0.3240768307465412 0.23877316253426212 0.05891066784469541 0.24734212678942147 0.2929356706623233 -0.7248884518575052
78000000.0 0.26815340577761937 -0.7294571078726257 0.08076541611228336 0.2528288694930652 0.32554058905499644 0.2383141191898368 0.325540589055009 0.23831411918988826
 0.08076541611228331 0.25282886949306504 0.26815340577778063 -0.7294571078725066 0.325540589055009 0.23831411918989814 0.3255405890550379 0.2383141191899531
 0.3255405890549962 0.23831411918983664 0.3255405890550091 0.23831411918989814 0.2884280306833222 -0.725152032375423 0.06049079120657991 0.24852379399585667
 0.3255405890550088 0.23831411918988815 0.3255405890550377 0.23831411918995302 0.06049079120657984 0.24852379399585653 0.2884280306834469 -0.7251520323753199
78500000.0 0.26361825763599916 -0.7295717577355383 0.08240300008949553 0.2538716979000372 0.3269893711371999 0.2378500299178077 0.32698937113721277 0.23785002991785945
 0.08240300008949548 0.25387169790003705 0.26361825763616137 -0.7295717577354193 0.326989371137213 0.23785002991786947 0.32698937113724214 0.23785002991792453
 0.3269893711371996 0.2378500299178076 0.32698937113721305 0.23785002991786947 0.28394596514945236 -0.7253880809075954 0.06207529257604153 0.24968802107208848
 0.32698937113721266 0.23785002991785936 0.32698937113724197 0.23785002991792442 0.062075292576041476 0.2496880210720884 0.2839459651495778 -0.7253880809074924
79000000.0 0.2591104522890473 -0.729659305666967 0.08404291113722402 0.25489712036210693 0.32842331828681115 0.2373810926524879 0.32842331828682436 0.2373810926525399
 0.084042911137224 0.2548971203621069 0.2591104522892099 -0.7296593056668482 0.32842331828682453 0.23738109265254984 0.32842331828685417 0.23738109265260518
 0.32842331828681093 0.23738109265248789 0.32842331828682475 0.23738109265254992 0.27948946231043015 -0.725597061035052 0.06366390111584039 0.25083487573018604
 0.3284233182868243 0.23738109265253982 0.32842331828685395 0.23738109265260499 0.06366390111584033 0.2508348757301859 0.27948946231055616 -0.7255970610349491
79500000.0 0.2546299572901815 -0.7297202354087818 0.0856848990857227 0.25590523469047505 0.32984257181199417 0.23690750035921213 0.3298425718120077 0.23690750035926433
 0.08568489908572267 0.2559052346904749 0.25462995729034493 -0.7297202354086636 0.329842571812008 0.23690750035927435 0.32984257181203785 0.23690750035932967
 0.32984257181199395 0.236907500359212 0.3298425718120081 0.23690750035927438 0.27505850584692326 -0.7257794303224189 0.06525635052898023 0.2519644296041059
 0.3298425718120075 0.23690750035926417 0.3298425718120377 0.23690750035932961 0.06525635052898017 0.25196442960410587 0.2750585058470498 -0.725779430322316
80000000.0 0.25017673552672437 -0.7297550241362243 0.08732871854986707 0.2568961418625777 0.33124727296165 0.2364294411368825 0.3312472729616639 0.236429441136935
 0.08732871854986708 0.25689614186257764 0.2501767355268885 -0.729755024136106 0.33124727296166423 0.2364294411369451 0.33124727296169465 0.23642944113700065
 0.33124727296164985 0.23642944113688258 0.3312472729616644 0.23642944113694522 0.2706530750168378 -0.7259356403640377 0.06685237905975268 0.2530767580903855
 0.3312472729616638 0.23642944113693487 0.3312472729616944 0.2364294411370005 0.06685237905975268 0.25307675809038527 0.27065307501696495 -0.7259356403639353
80500000.0 0.2457507453779416 -0.7297641425091113 0.08897412891130202 0.25786994587046813 0.3326375628553235 0.23594709831938154 0.3326375628553376 0.23594709831943433
 0.08897412891130203 0.2578699458704681 0.24575074537810643 -0.7297641425089932 0.3326375628553381 0.23594709831944444 0.33263756285536866 0.23594709831950011
 0.33263756285532325 0.23594709831938152 0.3326375628553381 0.23594709831944446 0.2662731447980423 -0.7260661368309074 0.06845172949120029 0.2541719401922581
 0.33263756285533735 0.2359470983194341 0.33263756285536844 0.2359470983195001 0.06845172949120026 0.25417194019225803 0.2662731447981702 -0.7260661368308048
81000000.0 0.2413519408691147 -0.7297480547241574 0.09062089429755102 0.2588267535728842 0.33401358241661183 0.23546065057569723 0.3340135824166262 0.2354606505757501
 0.09062089429755103 0.2588267535728842 0.2413519408692804 -0.7297480547240395 0.3340135824166269 0.2354606505757604 0.3340135824166578 0.23546065057581617
 0.3340135824166116 0.23546065057569723 0.3340135824166269 0.2354606505757604 0.26191868602749163 -0.7261713595184714 0.0700541491391732 0.2552500583671924
 0.3340135824166261 0.23546065057575002 0.33401358241665746 0.23546065057581608 0.07005414913917317 0.25525005836719233 0.2619186860276199 -0.7261713595183691
81500000.0 0.2369802718217314 -0.7297072185683172 0.09226878355825498 0.25976667455098185 0.33537547230995113 0.2349702720087293 0.33537547230996595 0.23497027200878237
 0.09226878355825498 0.2597666745509818 0.23698027182189746 -0.7297072185681996 0.33537547230996656 0.23497027200879264 0.3353754723099979 0.23497027200884857
 0.3353754723099509 0.23497027200872916 0.3353754723099666 0.23497027200879267 0.25758966553683516 -0.7262517423951864 0.07165938984315014 0.2563111983778448
 0.3353754723099658 0.23497027200878226 0.33537547230999765 0.23497027200884846 0.07165938984315012 0.25631119837784466 0.25758966553696416 -0.7262517423950843
82000000.0 0.23263568399987405 -0.7296420854730739 0.09391757023870573 0.26068982096770954 0.3367233728806537 0.23447613225274444 0.336723372880669 0.23447613225279787
 0.09391757023870577 0.26068982096770943 0.23263568400004095 -0.7296420854729567 0.33672337288066956 0.23447613225280808 0.3367233728807013 0.23447613225286415
 0.33672337288065346 0.2344761322527443 0.3367233728806696 0.2344761322528081 0.25328604628459034 -0.7263077136517901 0.07326720795398847 0.25735544914641983
 0.3367233728806687 0.23447613225279765 0.33672337288070103 0.234476132252864 0.07326720795398846 0.2573554491464197 0.25328604628471996 -0.7263077136516881
82500000.0 0.228318119252895 -0.7295531005695874 0.09556703255083171 0.2615963074307984 0.33805742409807993 0.2339783965694574 0.3380574240980954 0.23397839656951105
 0.09556703255083168 0.26159630743079837 0.22831811925306242 -0.7295531005694704 0.338057424098096 0.23397839656952135 0.33805742409812806 0.23397839656957753
 0.33805742409807976 0.2339783965694573 0.3380574240980961 0.2339783965695213 0.24900778748496175 -0.7263396957512177 0.07487736431876374 0.25838290261242247
 0.3380574240980952 0.2339783965695109 0.33805742409812783 0.2339783965695774 0.07487736431876373 0.2583829026124224 0.24900778748509197 -0.7263396957511156
83000000.0 0.22402751565445 -0.7294407027446309 0.09721695334178825 0.26248625085933336 0.3393777655018235 0.23347722594271247 0.33937776550183923 0.23347722594276618
 0.09721695334178823 0.26248625085933325 0.22402751565461815 -0.7294407027445142 0.3393777655018401 0.2334772259427766 0.3393777655018725 0.2334772259428329
 0.33937776550182325 0.23347722594271234 0.3393777655018402 0.23347722594277664 0.24475484473338527 -0.7263481054790881 0.07648962426285197 0.2593936535937844
 0.339377765501839 0.23347722594276604 0.33937776550187226 0.23347722594283282 0.07648962426285194 0.25939365359378436 0.24475484473351586 -0.7263481054789862
83500000.0 0.21976380763797926 -0.7293053246972422 0.09886712006030109 0.2633597703538737 0.340684536150802 0.23297277717174847 0.3406845361508181 0.23297277717180248
 0.09886712006030106 0.2633597703538736 0.21976380763814815 -0.7293053246971256 0.34068453615081895 0.23297277717181297 0.3406845361508517 0.23297277717186943
 0.34068453615080185 0.2329727771717484 0.3406845361508191 0.232972777171813 0.2405271701288722 -0.7263333539947187 0.07810375756940682 0.260387799651344
 0.34068453615081795 0.23297277717180243 0.34068453615085154 0.23297277717186932 0.07810375756940681 0.26038779965134395 0.24052717012900368 -0.7263333539946168
84000000.0 0.21552692612870483 -0.7291473929960186 0.10051732472090398 0.26421698707008506 0.3419778745751372 0.23246520296303191 0.34197787457515355 0.2324652029630862
 0.10051732472090397 0.26421698707008495 0.21552692612887442 -0.7291473929959024 0.34197787457515444 0.23246520296309658 0.3419778745751875 0.23246520296315315
 0.341977874575137 0.2324652029630318 0.3419778745751546 0.23246520296309658 0.23632471239323355 -0.7262958468825951 0.07971953845637417 0.261365440956655
 0.3419778745751534 0.23246520296308598 0.34197787457518736 0.23246520296315296 0.07971953845637414 0.2613654409566549 0.23632471239336547 -0.7262958468824934
84500000.0 0.2113167986722299 -0.7289673281369972 0.10216736386620882 0.2650580240958437 0.3432579187307218 0.23195465202064247 0.3432579187307384 0.23195465202069696
 0.10216736386620878 0.2650580240958436 0.21131679867240002 -0.7289673281368809 0.34325791873073946 0.23195465202070747 0.34325791873077294 0.23195465202076418
 0.34325791873072165 0.23195465202064236 0.3432579187307397 0.2319546520207075 0.23214741698725222 -0.7262359842042572 0.0813367455511852 0.2623266801630975
 0.34325791873073835 0.23195465202069687 0.3432579187307727 0.2319546520207641 0.08133674555118517 0.26232668016309746 0.23214741698738475 -0.7262359842041555
85000000.0 0.20713334955980675 -0.728765544602046 0.10381703852733849 0.26588300633177 0.3445248059563679 0.23144126913520466 0.3445248059563849 0.2314412691352592
 0.10381703852733845 0.2658830063317699 0.20713334955997775 -0.72876554460193 0.34452480595638607 0.23144126913527 0.3445248059564199 0.23144126913532667
 0.3445248059563677 0.2314412691352046 0.3445248059563862 0.23144126913526997 0.2279952262238806 -0.726154160550543 0.08295516186326352 0.2632716222802608
 0.3445248059563848 0.23144126913525917 0.34452480595641966 0.2314412691353266 0.08295516186326352 0.2632716222802607 0.22799522622401347 -0.7261541605504417
85500000.0 0.20297649995035608 -0.7285424509177225 0.10546615418265189 0.266692060375149 0.34577867293343617 0.23092519527135424 0.34577867293345355 0.23092519527140912
 0.10546615418265184 0.2666920603751488 0.20297649995052758 -0.7285424509176073 0.3457786729334547 0.23092519527141966 0.3457786729334888 0.23092519527147654
 0.34577867293343595 0.23092519527135413 0.3457786729334547 0.23092519527141966 0.22386807937853126 -0.7260507650941456 0.08457457475447545 0.2642003745515656
 0.3457786729334533 0.23092519527140892 0.3457786729334887 0.2309251952714764 0.08457457475447538 0.2642003745515655 0.22386807937866487 -0.7260507650940444
86000000.0 0.1988461679893032 -0.728298449714529 0.10711452071488042 0.2674853144071904 0.34701965564784765 0.23040656765373732 0.3470196556478654 0.2304065676537925
 0.10711452071488041 0.26748531440719037 0.19884616798947538 -0.7282984497144135 0.3470196556478666 0.23040656765380307 0.34701965564790116 0.23040656765386014
 0.3470196556478475 0.2304065676537372 0.3470196556478667 0.2304065676538031 0.21976591279653246 -0.7259261816424362 0.08619477590765008 0.2651130463350914
 0.34701965564786513 0.23040656765379228 0.3470196556479009 0.23040656765385997 0.08619477590765 0.2651130463350913 0.2197659127966667 -0.725926181642335
86500000.0 0.19474226892430896 -0.7280339377865174 0.10876195236679678 0.26826289808358106 0.3482478893543863 0.229885519851537 0.3482478893544043 0.22988551985159236
 0.10876195236679673 0.268262898083581 0.19474226892448157 -0.7280339377864021 0.3482478893544056 0.22988551985160305 0.34824788935444045 0.2298855198516602
 0.34824788935438605 0.2298855198515369 0.34824788935440565 0.22988551985160297 0.21568865999781306 -0.7257807886905144 0.0878155612932912 0.2660097489875716
 0.34824788935440404 0.2298855198515922 0.3482478893544402 0.22988551985166003 0.08781556129329118 0.26600974898757146 0.21568865999794792 -0.7257807886904133
87000000.0 0.19066471521795775 -0.7277493061511963 0.11040826769552559 0.26902494242828007 0.34946350854319685 0.22936218186152765 0.3494635085432153 0.22936218186158325
 0.11040826769552559 0.26902494242828 0.19066471521813114 -0.7277493061510814 0.3494635085432166 0.22936218186159396 0.349463508543252 0.22936218186165117
 0.34946350854319674 0.22936218186152754 0.34946350854321667 0.2293621818615939 0.21163625177888504 -0.725614959474441 0.08943673113459683 0.2668905957515184
 0.3494635085432151 0.22936218186158308 0.3494635085432517 0.22936218186165105 0.08943673113459677 0.2668905957515183 0.21163625177902048 -0.7256149594743402
87500000.0 0.1866134166574822 -0.7274449401096827 0.11205328952560671 0.26977157973050714 0.35066664690839366 0.22883668018965814 0.35066664690841226 0.22883668018971381
 0.11205328952560673 0.26977157973050714 0.18661341665765616 -0.7274449401095683 0.35066664690841387 0.2288366801897246 0.35066664690844934 0.22883668018978187
 0.3506666469083934 0.22883668018965808 0.35066664690841387 0.22883668018972458 0.20760861631218883 -0.7254290620246184 0.09105808987089861 0.26775570164543633
 0.35066664690841215 0.2288366801897137 0.3506666469084491 0.2288366801897818 0.09105808987089853 0.2677557016454363 0.2076086163123247 -0.7254290620245176
88000000.0 0.18258828046158065 -0.7271212193070604 0.11369684490091388 0.2705029434448711 0.35185743731869024 0.22830913793116592 0.3518574373187094 0.22830913793122184
 0.11369684490091386 0.270502943444871 0.1825882804617551 -0.7271212193069462 0.3518574373187108 0.2283091379312326 0.35185743731874675 0.22830913793129004
 0.35185743731869 0.22830913793116586 0.35185743731871094 0.22830913793123256 0.20360567924286174 -0.7252234592192792 0.0926794461196314 0.26860518335708344
 0.35185743731870917 0.2283091379312216 0.3518574373187465 0.22830913793128982 0.09267944611963128 0.2686051833570833 0.20360567924299813 -0.7252234592191787
88500000.0 0.1785892113844025 -0.7267785177928971 0.1153387650355289 0.2712191680945857 0.3530360117899714 0.22777967484922773 0.3530360117899908 0.22777967484928377
 0.11533876503552881 0.2712191680945855 0.1785892113845776 -0.7267785177927831 0.3530360117899923 0.22777967484929465 0.35303601179002864 0.22777967484935208
 0.35303601178997107 0.22777967484922765 0.3530360117899924 0.2277796748492946 0.19962736378299448 -0.724998508838053 0.09430061263693529 0.26943915913973504
 0.3530360117899905 0.2277796748492836 0.3530360117900284 0.227779674849352 0.09430061263693529 0.26943915913973493 0.19962736378313137 -0.7249985088379528
89000000.0 0.17461611181676046 -0.7264172040818796 0.11697888526366652 0.2719203891777205 0.35420250145972315 0.22724840745215233 0.35420250145974275 0.2272484074522085
 0.11697888526366644 0.27192038917772043 0.1746161118169359 -0.7264172040817658 0.3542025014597445 0.22724840745221941 0.35420250145978105 0.22724840745227692
 0.3542025014597229 0.22724840745215222 0.3542025014597446 0.2272484074522193 0.1956735908034344 -0.7247545636155741 0.09592140627699122 0.2702577487114085
 0.3542025014597425 0.22724840745220828 0.3542025014597807 0.22724840745227676 0.09592140627699115 0.2702577487114084 0.1956735908035716 -0.7247545636154739
89500000.0 0.1706688818846379 -0.7260376412145282 0.11861704498874175 0.2726067430764304 0.3553570365632462 0.2267154490691222 0.3553570365632662 0.22671544906917868
 0.11861704498874172 0.27260674307643035 0.17066888188481424 -0.7260376412144144 0.355357036563268 0.22671544906918964 0.35535703656330475 0.22671544906924726
 0.3553570365632461 0.22671544906912222 0.35535703656326806 0.2267154490691896 0.1917442789231924 -0.7244919712951033 0.0975416479501857 0.2710610731569993
 0.355357036563266 0.22671544906917865 0.35535703656330464 0.22671544906924723 0.0975416479501856 0.27106107315699923 0.1917442789233304 -0.7244919712950031
90000000.0 0.1667474195450502 -0.7256401868179516 0.12025308763166691 0.27327836696910923 0.356499746411577 0.2261809099244955 0.35649974641159726 0.22618090992455217
 0.12025308763166687 0.2732783669691091 0.16674741954522718 -0.7256401868178385 0.3564997464115991 0.22618090992456305 0.3564997464116364 0.22618090992462084
 0.3564997464115767 0.2261809099244954 0.3564997464115992 0.22618090992456302 0.1878393445965171 -0.7242110746821347 0.09916116258019858 0.2718492548332858
 0.35649974641159704 0.22618090992455192 0.35649974641163623 0.22618090992462075 0.09916116258019855 0.27184925483328565 0.18783934459665555 -0.7242110746820347
90500000.0 0.1628516206793225 -0.7252251931666104 0.1218868605784623 0.2739353987454128 0.35763075937104283 0.2256448972106741 0.35763075937106337 0.22564489721073072
 0.12188686057846232 0.2739353987454127 0.16285162067949988 -0.7252251931664975 0.3576307593710653 0.2256448972107418 0.3576307593711029 0.2256448972107995
 0.35763075937104255 0.22564489721067396 0.3576307593710653 0.22564489721074169 0.1839587021976822 -0.7239122116979566 0.10077977906010106 0.2726224172767522
 0.3576307593710632 0.22564489721073058 0.3576307593711027 0.22564489721079942 0.10077977906010106 0.2726224172767521 0.1839587021978209 -0.7239122116978569
91000000.0 0.1589813791838443 -0.7247930072430485 0.12351821512725993 0.27457797692409364 0.3587502028443826 0.2251075151595535 0.35875020284440345 0.2251075151596104
 0.12351821512725994 0.27457797692409347 0.15898137918402222 -0.7247930072429358 0.3587502028444054 0.22510751515962132 0.35875020284444337 0.22510751515967928
 0.35875020284438225 0.22510751515955338 0.3587502028444055 0.22510751515962135 0.18010226410355398 -0.7235957154331447 0.10239733020754863 0.2733806851141832
 0.35875020284440334 0.22510751515961025 0.35875020284444314 0.22510751515967925 0.10239733020754858 0.27338068511418306 0.18010226410369354 -0.7235957154330451
91500000.0 0.15513658705835953 -0.724343970798567 0.12514700643477736 0.2752062405735923 0.3598582032533657 0.22456886511256427 0.35985820325338713 0.22456886511262142
 0.1251470064347773 0.27520624057359205 0.15513658705853783 -0.7243439707984549 0.35985820325338896 0.22456886511263227 0.3598582032534273 0.22456886511269034
 0.3598582032533654 0.22456886511256413 0.3598582032533891 0.22456886511263233 0.1762699407739818 -0.7232619142009623 0.10401365271915328 0.2741241839759807
 0.3598582032533868 0.22456886511262117 0.35985820325342716 0.2245688651126902 0.1040136527191532 0.27412418397598065 0.17626994077412192 -0.7232619142008629
92000000.0 0.1513171344918478 -0.7238784204138093 0.12677309346233354 0.2758203292353283 0.36095488602284287 0.2240290455893181 0.36095488602286463 0.22402904558937542
 0.12677309346233354 0.2758203292353282 0.15131713449202677 -0.7238784204136973 0.3609548860228668 0.22402904558938638 0.3609548860229053 0.22402904558944445
 0.36095488602284276 0.22402904558931802 0.3609548860228669 0.2240290455893864 0.1724616408300704 -0.7229111315906421 0.10562858712410918 0.27485304041215436
 0.3609548860228644 0.22402904558937528 0.36095488602290515 0.22402904558944445 0.10562858712410912 0.2748530404121542 0.17246164083021084 -0.7229111315905427
92500000.0 0.14752290994605466 -0.7233966875592239 0.1283963389214775 0.27642038284963366 0.3620403755661668 0.22348815235487324 0.3620403755661889 0.2234881523549307
 0.12839633892147753 0.2764203828496336 0.14752290994623454 -0.723396687559112 0.36204037556619123 0.22348815235494174 0.36204037556623003 0.22348815235499989
 0.3620403755661667 0.2234881523548731 0.36204037556619123 0.2234881523549418 0.16867727113038014 -0.7225436865205308 0.10724197773715037 0.27556738181093404
 0.36204037556618873 0.22348815235493052 0.36204037556623 0.22348815235499986 0.1072419777371503 0.2755673818109339 0.16867727113052108 -0.7225436865204315
93000000.0 0.14375380023672818 -0.7228990986553839 0.13001660921929376 0.2770065416842732 0.3631147952719216 0.22294627848563434 0.3631147952719439 0.22294627848569182
 0.13001660921929376 0.2770065416842732 0.1437538002369086 -0.7228990986552721 0.36311479527194623 0.22294627848570306 0.3631147952719854 0.22294627848576126
 0.36311479527192136 0.22294627848563414 0.36311479527194623 0.222946278485703 0.1649167368451121 -0.7221598932910752 0.10885367261090806 0.2762673363199578
 0.36311479527194374 0.22294627848569173 0.3631147952719852 0.22294627848576115 0.10885367261090804 0.27626733631995776 0.16491673684525357 -0.7221598932909762
93500000.0 0.14000969061260785 -0.7223859751331354 0.1316337744034505 0.2775789462654941 0.36417826749190296 0.22240351443390036 0.36417826749192567 0.22240351443395828
 0.13163377440345042 0.27757894626549395 0.14000969061278853 -0.722385975133024 0.3641782674919279 0.22240351443396933 0.3641782674919677 0.22240351443402764
 0.3641782674919028 0.22240351443390036 0.36417826749192805 0.22240351443396927 0.16117994152831605 -0.7217600616376294 0.11046352348774027 0.2769530327699814
 0.36417826749192544 0.22240351443395812 0.3641782674919674 0.22240351443402756 0.11046352348774019 0.27695303276998123 0.1611799415284583 -0.7217600616375305
94000000.0 0.13629046483222904 -0.7218576334935471 0.1332477081070469 0.27813773731154895 0.36523091353029385 0.22185994809108006 0.3652309135303167 0.22185994809113785
 0.13324770810704686 0.27813773731154884 0.13629046483241006 -0.7218576334934363 0.36523091353031917 0.22185994809114898 0.36523091353035914 0.22185994809120724
 0.3652309135302936 0.2218599480910799 0.36523091353031933 0.22185994809114898 0.15746678718817894 -0.7213444967830663 0.11207138575109526 0.27762460060106114
 0.36523091353031656 0.22185994809113768 0.3652309135303588 0.22185994809120718 0.11207138575109524 0.2776246006010611 0.15746678718832116 -0.7213444967829677
94500000.0 0.13259600523858758 -0.7213143853676454 0.1348582874933197 0.2786830556686361 0.36627285363397755 0.22131566484958598 0.3662728536340009 0.2213156648496441
 0.13485828749331977 0.2786830556686361 0.13259600523876916 -0.7213143853675344 0.36627285363400336 0.22131566484965523 0.36627285363404366 0.2213156648497136
 0.36627285363397744 0.221315664849586 0.36627285363400336 0.22131566484965523 0.15377717435543173 -0.720913499490176 0.11367711837647358 0.2782821697911601
 0.36627285363400075 0.2213156648496439 0.3662728536340434 0.22131566484971352 0.11367711837647347 0.27828216979115994 0.1537771743555745 -0.7209134994900775
95000000.0 0.12892619283171622 -0.7207565375759026 0.1364653932002611 0.27921504224920163 0.367304206983942 0.22077074766343277 0.36730420698396565 0.22077074766349097
 0.13646539320026108 0.2792150422492016 0.1289261928318986 -0.7207565375757921 0.36730420698396826 0.22077074766350233 0.36730420698400884 0.22077074766356072
 0.36730420698394184 0.22077074766343271 0.3673042069839684 0.22077074766350227 0.15011100214992834 -0.7204673661138339 0.11528058388204715 0.27892587078712594
 0.3673042069839655 0.2207707476634908 0.3673042069840087 0.2207707476635606 0.11528058388204715 0.2789258707871259 0.1501110021500716 -0.7204673661137356
95500000.0 0.1252809073392262 -0.7201843921874728 0.13806890928519877 0.27973383797254525 0.3683250916877177 0.22022527710754683 0.36832509168774163 0.22022527710760514
 0.13806890928519872 0.27973383797254514 0.12528090733940922 -0.7201843921873624 0.36832509168774424 0.2202252771076165 0.3683250916877852 0.22022527710767503
 0.3683250916877175 0.2202252771075468 0.3683250916877445 0.22022527710761652 0.14646816834543078 -0.7200063886529245 0.1168816482789922 0.27955583443799037
 0.3683250916877416 0.22022527710760512 0.368325091687785 0.22022527710767492 0.11688164827899221 0.2795558344379903 0.1464681683455747 -0.7200063886528265
96000000.0 0.1216600272848547 -0.7195982465791391 0.13966872316938964 0.28023958370767893 0.36933562477280746 0.21967933143581417 0.3693356247728318 0.21967933143587265
 0.1396687231693896 0.28023958370767865 0.12166002728503807 -0.719598246579029 0.3693356247728344 0.21967933143588392 0.36933562477287585 0.2196793314359425
 0.36933562477280724 0.21967933143581406 0.36933562477283455 0.21967933143588403 0.14284856943265106 -0.7195308548020082 0.11848018102159132 0.2801721919305414
 0.36933562477283155 0.2196793314358724 0.3693356247728757 0.21967933143594237 0.11848018102159125 0.2801721919305411 0.14284856943279545 -0.7195308548019105
96500000.0 0.11806343005507548 -0.7189983934939694 0.1412647255826694 0.2807324202183796 0.37033592218105693 0.21913298663787975 0.3703359221810815 0.2191329866379384
 0.14126472558266942 0.28073242021837946 0.1180634300552591 -0.7189983934938597 0.3703359221810843 0.2191329866379496 0.37033592218112593 0.21913298663800815
 0.3703359221810567 0.21913298663787967 0.37033592218108435 0.21913298663794956 0.13925210068058952 -0.7190410480027126 0.12007605495715314 0.28077507472711594
 0.3703359221810813 0.21913298663793812 0.37033592218112565 0.2191329866380081 0.1200760549571531 0.2807750747271159 0.1392521006807343 -0.7190410480026149
97000000.0 0.11449099196380964 -0.7183851210996518 0.14285681050820345 0.2812124881103848 0.3713260987639222 0.21858631649471907 0.3713260987639471 0.21858631649477775
 0.14285681050820348 0.28121248811038474 0.11449099196399387 -0.7183851210995422 0.37132609876394995 0.21858631649478918 0.3713260987639919 0.21858631649484775
 0.3713260987639221 0.21858631649471905 0.3713260987639501 0.21858631649478918 0.1356786561962085 -0.7185372474948415 0.12166914627580253 0.28136461450556777
 0.37132609876394707 0.2185863164947776 0.3713260987639916 0.21858631649484764 0.12166914627580239 0.2813646145055676 0.13567865619635358 -0.718537247494744
97500000.0 0.1109425883152895 -0.717758713046502 0.14444487512738124 0.2816799277806756 0.3723062682785929 0.21803939263299943 0.3723062682786182 0.21803939263305847
 0.14444487512738124 0.2816799277806755 0.11094258831547428 -0.7177587130463926 0.3723062682786211 0.2180393926330697 0.3723062682786634 0.2180393926331285
 0.3723062682785927 0.21803939263299948 0.37230626827862123 0.21803939263306976 0.13212812898248363 -0.7180197283671874 0.12325933446018496 0.2819409431013545
 0.3723062682786181 0.21803939263305833 0.3723062682786632 0.21803939263312846 0.1232593344601849 0.2819409431013544 0.13212812898262946 -0.71801972836709
98000000.0 0.10741809346511412 -0.7171194485251213 0.14602881976488963 0.2821348793687938 0.37327654338492594 0.21749228457825093 0.37327654338495164 0.21749228457831
 0.1460288197648896 0.2821348793687938 0.10741809346529933 -0.717119448525012 0.3732765433849545 0.2174922845783214 0.37327654338499716 0.21749228457838019
 0.37327654338492566 0.21749228457825082 0.37327654338495453 0.21749228457832132 0.12860041099487138 -0.7174887616080359 0.12484650223512998 0.2825041924517016
 0.3732765433849514 0.21749228457830988 0.37327654338499683 0.21749228457838 0.12484650223512994 0.2825041924517015 0.12860041099501757 -0.7174887616079386
98500000.0 0.10391738087954244 -0.7164676023236974 0.14760854783400565 0.28257748271014327 0.37423703564315325 0.2169450598068651 0.3742370356431792 0.21694505980692427
 0.14760854783400568 0.28257748271014327 0.1039173808797283 -0.7164676023235884 0.3742370356431822 0.21694505980693582 0.37423703564322514 0.21694505980699444
 0.3742370356431531 0.21694505980686507 0.3742370356431823 0.21694505980693576 0.12509539319622953 -0.7169446141553516 0.12643053551731656 0.28305449454179105
 0.374237035643179 0.21694505980692413 0.3742370356432247 0.21694505980699436 0.12643053551731645 0.2830544945417908 0.12509539319637586 -0.7169446141552546
99000000.0 0.10044032319306907 -0.7158034448849278 0.14918396578213952 0.28300787729122096 0.3751878555123227 0.21639778379694247 0.37518785551234884 0.21639778379700178
 0.1491839657821395 0.28300787729122084 0.10044032319325527 -0.7158034448848194 0.375187855512352 0.21639778379701322 0.37518785551239514 0.21639778379707192
 0.37518785551232237 0.21639778379694224 0.375187855512352 0.21639778379701308 0.12161296561022841 -0.7163875489466398 0.128011323364978 0.283591981352926
 0.3751878555123486 0.2163977837970015 0.375187855512395 0.21639778379707184 0.12801132336497792 0.2835919813529259 0.12161296561037546 -0.7163875489465428
99500000.0 0.09698679226431733 -0.7151272423625592 0.15075498303666277 0.28342620220672715 0.3761291123494365 0.21585052007800587 0.37612911234946295 0.2158505200780652
 0.15075498303666274 0.2834262022067271 0.096986792264504 -0.715127242362451 0.37612911234946633 0.21585052007807684 0.37612911234950974 0.2158505200781356
 0.37612911234943625 0.2158505200780057 0.3761291123494662 0.21585052007807665 0.1181530173732905 -0.7158178249684672 0.12958875792768726 0.28411678481262814
 0.3761291123494627 0.21585052007806504 0.37612911234950946 0.21585052007813546 0.12958875792768723 0.2841167848126281 0.11815301737343786 -0.7158178249683703
100000000.0 0.09355665923029823 -0.714439256677528 0.15232151195105031 0.2838325961185064 0.3770609144092517 0.21530333027960147 0.3770609144092787 0.21530333027966098
 0.1523215119510503 0.28383259611850625 0.0935566592304854 -0.7144392566774201 0.37706091440928197 0.21530333027967238 0.3770609144093258 0.21530333027973128
 0.3770609144092515 0.21530333027960136 0.3770609144092821 0.2153033302796724 0.1147154367850912 -0.7152356973056422 0.13116273439625506 0.28462903674661394
 0.3770609144092784 0.21530333027966075 0.37706091440932554 0.2153033302797312 0.13116273439625503 0.2846290367466138 0.11471543678523911 -0.7152356973055458
100500000.0 0.09014979455906882 -0.7137397455736921 0.15388346775136616 0.2842271972162667 0.3779833688447081 0.21475627417880408 0.3779833688447353 0.21475627417886378
 0.1538834677513661 0.28422719721626655 0.09014979455925637 -0.7137397455735845 0.37798336884473854 0.21475627417887516 0.3779833688447828 0.21475627417893414
 0.37798336884470785 0.21475627417880389 0.37798336884473865 0.2147562741788751 0.11130011135765593 -0.7146414171900418 0.13273315095277646 0.28512886883260935
 0.3779833688447351 0.2147562741788636 0.3779833688447827 0.21475627417893411 0.1327331509527764 0.2851288688326093 0.11130011135780453 -0.7146414171899453
101000000.0 0.08676606810083236 -0.713028962673145 0.15544076848311786 0.28461014318003053 0.37889658170795004 0.21420940974664957 0.37889658170797763 0.2142094097467094
 0.15544076848311772 0.28461014318003036 0.08676606810102039 -0.7130289626730375 0.3788965817079809 0.2142094097467209 0.3788965817080254 0.21420940974677993
 0.3788965817079497 0.21420940974664957 0.378896581707981 0.21420940974672092 0.10790692786309107 -0.7140352320490758 0.13429990872085662 0.2856164125559545
 0.37889658170797735 0.21420940974670924 0.3788965817080252 0.21420940974677977 0.13429990872085654 0.2856164125559543 0.10790692786323985 -0.7140352320489797
101500000.0 0.08340534913751647 -0.7123071575311004 0.1569933349585059 0.28498157114426703 0.37980065795191353 0.2136627931935099 0.37980065795194146 0.2136627931935699
 0.1569933349585059 0.284981571144267 0.08340534913770492 -0.7123071575309932 0.37980065795194484 0.2136627931935813 0.3798006579519896 0.21366279319364037
 0.37980065795191337 0.21366279319350984 0.3798006579519449 0.21366279319358125 0.10453577237997269 -0.7134173855537905 0.1358629117160471 0.28609179916695004
 0.37980065795194123 0.2136627931935697 0.3798006579519893 0.2136627931936403 0.135862911716047 0.28609179916694993 0.10453577238012211 -0.7134173855536943
102000000.0 0.08006750643086744 -0.711574575690341 0.15854109070409056 0.28534161766366156 0.3806957014324452 0.21311647901343367 0.38069570143247333 0.2131164790134937
 0.15854109070409053 0.28534161766366145 0.08006750643105653 -0.7115745756902341 0.38069570143247694 0.21311647901350522 0.380695701432522 0.21311647901356431
 0.38069570143244486 0.21311647901343356 0.38069570143247694 0.21311647901350528 0.10118653033843641 -0.7127881176665931 0.13742206679651886 0.2865551596399069
 0.3806957014324731 0.21311647901349354 0.38069570143252185 0.2131164790135643 0.13742206679651883 0.2865551596399068 0.10118653033858623 -0.7127881176664974
102500000.0 0.07675240826909728 -0.7108314587352217 0.1600839619088974 0.2856904186804723 0.3815818149109266 0.2125705200274695 0.38158181491095505 0.21257052002752966
 0.1600839619088973 0.28569041868047224 0.07675240826928653 -0.7108314587351149 0.3815818149109585 0.2125705200275412 0.381581814911004 0.21257052002760035
 0.3815818149109263 0.2125705200274696 0.38158181491095866 0.2125705200275413 0.09785908656399142 -0.7121476646886051 0.13897728361400039 0.287006624633849
 0.38158181491095483 0.21257052002752957 0.38158181491100374 0.21257052002760024 0.13897728361400039 0.2870066246338489 0.09785908656414137 -0.7121476646885094
103000000.0 0.07345992251211612 -0.7100780443452219 0.16162187737298256 0.28602810949343066 0.38245910005737416 0.21202496742599147 0.3824591000574028 0.21202496742605154
 0.16162187737298245 0.2860281094934305 0.07345992251230597 -0.7100780443451156 0.3824591000574065 0.21202496742606325 0.38245910005745215 0.2120249674261222
 0.38245910005737377 0.2120249674259913 0.38245910005740663 0.21202496742606314 0.09455332532009082 -0.7114962593066263 0.14052847456500517 0.28744632445482804
 0.3824591000574026 0.21202496742605145 0.382459100057452 0.21202496742612215 0.14052847456500514 0.287446324454828 0.09455332532024123 -0.7114962593065308
103500000.0 0.07018991663539122 -0.7093145663480381 0.16315476845647497 0.28635482472813983 0.3833276574539899 0.21147987081004588 0.3833276574540191 0.2114798708101062
 0.1631547684564749 0.2863548247281398 0.07018991663558131 -0.7093145663479321 0.38332765745402264 0.21147987081011768 0.38332765745406866 0.21147987081017686
 0.38332765745398956 0.21147987081004574 0.3833276574540226 0.21147987081011757 0.09126913034949247 -0.7108341306397137 0.14207555474237096 0.28787438901980833
 0.3833276574540188 0.21147987081010602 0.3833276574540684 0.2114798708101767 0.14207555474237096 0.2878743890198082 0.09126913034964354 -0.7108341306396183
104000000.0 0.0669422577724566 -0.7085412547722113 0.16468256902911443 0.28667069830892794 0.38418758659913693 0.21093527823173921 0.38418758659916624 0.2109352782317996
 0.16468256902911438 0.2866706983089279 0.06694225777264755 -0.7085412547721055 0.3841875865991701 0.21093527823181132 0.3841875865992165 0.2109352782318704
 0.3841875865991367 0.2109352782317391 0.3841875865991702 0.21093527823181119 0.08800638491443333 -0.7101615042853674 0.14361844188713518 0.28829094782207704
 0.384187586599166 0.21093527823179953 0.3841875865992162 0.21093527823187028 0.14361844188713507 0.28829094782207704 0.08800638491458462 -0.710161504285272
104500000.0 0.0637168127561187 -0.7077583358992833 0.16620521542029817 0.2869758634321109 0.3850389859117135 0.2103912362336845 0.3850389859117434 0.21039123623374514
 0.16620521542029815 0.28697586343211084 0.06371681275630971 -0.7077583358991778 0.3850389859117471 0.21039123623375666 0.38503898591179386 0.21039123623381586
 0.3850389859117134 0.21039123623368458 0.38503898591174723 0.2103912362337567 0.08476497183564981 -0.7094786023653198 0.14515705634076406 0.28869612989814064
 0.38503898591174324 0.21039123623374498 0.3850389859117936 0.21039123623381573 0.145157056340764 0.2886961298981404 0.08476497183580155 -0.7094786023652249
105000000.0 0.060513448158377295 -0.7069660323154779 0.16772264636965434 0.2872704525406253 0.3858819527359058 0.2098477898875256 0.38588195273593584 0.20984778988758615
 0.16772264636965428 0.28727045254062517 0.060513448158569 -0.7069660323153727 0.3858819527359397 0.20984778988759784 0.38588195273598663 0.209847789887657
 0.38588195273590553 0.20984778988752553 0.38588195273593984 0.20984778988759786 0.08154477353027191 -0.708785643570925 0.14669132099775692 0.2890900637960653
 0.3858819527359356 0.20984778988758604 0.3858819527359865 0.20984778988765695 0.14669132099775686 0.28909006379606517 0.08154477353042401 -0.7087856435708303
105500000.0 0.05733203032910658 -0.7061645629629019 0.16923480297815233 0.28755459729998756 0.38671658334629166 0.20930498283155718 0.3867165833463221 0.209304982831618
 0.16923480297815224 0.28755459729998745 0.057332030329298705 -0.7061645629627967 0.3867165833463261 0.20930498283162968 0.3867165833463733 0.20930498283168886
 0.3867165833462914 0.20930498283155716 0.38671658334632614 0.20930498283162957 0.07834567204861462 -0.708082843208143 0.14822116125864152 0.2894728775452217
 0.3867165833463217 0.20930498283161775 0.386716583346373 0.20930498283168877 0.14822116125864146 0.2894728775452216 0.0783456720487672 -0.7080828432080482
106000000.0 0.05417242543351619 -0.7053541431902586 0.17074162865976386 0.28782842857553953 0.3875429729532806 0.20876285730746028 0.38754297295331125 0.2087628573075211
 0.17074162865976372 0.28782842857553936 0.054172425433708864 -0.7053541431901537 0.3875429729533153 0.2087628573075329 0.38754297295336276 0.20876285730759203
 0.3875429729532804 0.20876285730746036 0.38754297295331547 0.20876285730753297 0.0751675491098988 -0.7073704132421197 0.14974650498337863 0.289844698627394
 0.387542972953311 0.20876285730752098 0.38754297295336265 0.20876285730759198 0.1497465049833786 0.28984469862739387 0.07516754911005144 -0.7073704132420253
106500000.0 0.05103449948843032 -0.7045349848030759 0.17224306909368436 0.2880920764109409 0.38836121570886295 0.20822145419616925 0.38836121570889404 0.20822145419623023
 0.17224306909368428 0.28809207641094087 0.051034499488622986 -0.7045349848029714 0.388361215708898 0.20822145419624186 0.38836121570894583 0.20822145419630106
 0.38836121570886273 0.20822145419616928 0.38836121570889803 0.20822145419624175 0.0720102861369212 -0.7066485623413585 0.15126728244519058 0.2902056539492167
 0.38836121570889365 0.20822145419623006 0.38836121570894555 0.20822145419630092 0.15126728244519047 0.29020565394921666 0.07201028613707447 -0.7066485623412642
107000000.0 0.04791811839740928 -0.7037072961134416 0.1737390721771261 0.2883456700078689 0.38917140471265216 0.207680813052889 0.38917140471268347 0.20768081305295003
 0.17373907217712597 0.2883456700078688 0.0479181183976026 -0.7037072961133375 0.38917140471268763 0.20768081305296177 0.3891714047127358 0.20768081305302105
 0.3891714047126519 0.20768081305288902 0.3891714047126878 0.20768081305296182 0.06887376428970576 -0.705917495921477 0.1527834262848266 0.2905558698158974
 0.3891714047126832 0.20768081305294991 0.3891714047127356 0.20768081305302097 0.15278342628482652 0.29055586981589726 0.06887376428985957 -0.7059174959213829
107500000.0 0.04482314798474704 -0.7028712819892429 0.1752295879786899 0.2885893377068873 0.3899736320182009 0.2071409721412815 0.3899736320182326 0.20714097214134253
 0.17522958797868987 0.2885893377068871 0.04482314798494065 -0.702871281989139 0.3899736320182368 0.20714097214135418 0.3899736320182851 0.20714097214141342
 0.3899736320182006 0.20714097214128138 0.38997363201823676 0.20714097214135418 0.06575786449815334 -0.7051774161885547 0.15429487146528076 0.2908954719061921
 0.38997363201823243 0.20714097214134233 0.38997363201828505 0.20714097214141333 0.15429487146528073 0.29089547190619197 0.06575786449830735 -0.705177416188461
108000000.0 0.04174945402836977 -0.7020271439029098 0.17671456869232505 0.2888232069694479 0.3907679886395717 0.20660196846683554 0.39076798863960344 0.2066019684668967
 0.17671456869232502 0.2888232069694478 0.04174945402856355 -0.7020271439028061 0.39076798863960777 0.2066019684669083 0.3907679886396565 0.20660196846696757
 0.3907679886395714 0.2066019684668354 0.3907679886396079 0.20660196846690826 0.0626624674937201 -0.7044285221820635 0.15580155522697167 0.29122458524859457
 0.39076798863960327 0.20660196846689652 0.39076798863965617 0.20660196846696743 0.15580155522697164 0.29122458524859446 0.06266246749387462 -0.7044285221819697
108500000.0 0.03869690229166393 -0.701175079979659 0.17819396859188275 0.28904740436098747 0.39155456455814525 0.20606383780944126 0.39155456455817733 0.2060638378095025
 0.1781939685918827 0.28904740436098736 0.03869690229185823 -0.7011750799795556 0.3915545645581818 0.20606383780951415 0.3915545645582309 0.2060638378095734
 0.391554564558145 0.20606383780944118 0.39155456455818194 0.20606383780951415 0.05958745384014678 -0.7036710098173825 0.15730341704339693 0.29154333419870393
 0.3915545645581772 0.20606383780950227 0.39155456455823057 0.20606383780957324 0.15730341704339681 0.29154333419870376 0.05958745384030156 -0.7036710098172889
109000000.0 0.035665358554261374 -0.700315285045237 0.17966774398627033 0.2892620555350845 0.3923334487296523 0.2055266147551826 0.3923334487296848 0.20552661475524384
 0.1796677439862704 0.2892620555350844 0.035665358554456156 -0.7003152850451339 0.3923334487296893 0.20552661475525552 0.3923334487297386 0.2055266147553148
 0.3923334487296521 0.20552661475518247 0.3923334487296894 0.20552661475525558 0.05653270396325734 -0.7029050719278959 0.15880039857727127 0.29185184241773643
 0.3923334487296846 0.20552661475524378 0.39233344872973835 0.20552661475531475 0.15880039857727113 0.2918518424177364 0.05653270396341262 -0.7029050719278024
109500000.0 0.03265468864180887 -0.6994479506731596 0.18113585317521044 0.2894672852186411 0.3931047290914081 0.2049903327273665 0.39310472909144106 0.20499033272742792
 0.18113585317521036 0.289467285218641 0.03265468864200403 -0.6994479506730568 0.39310472909144556 0.2049903327274396 0.39310472909149513 0.20499033272749884
 0.3931047290914079 0.20499033272736647 0.39310472909144556 0.20499033272743958 0.05349809817985805 -0.7021308983066712 0.16029244363715786 0.2921502328521456
 0.39310472909144095 0.2049903327274278 0.393104729091495 0.20499033272749884 0.16029244363715786 0.29215023285214553 0.05349809818001365 -0.7021308983065782
110000000.0 0.029664758454744318 -0.69857326523145 0.18259825640561 0.28966321719805627 0.39386849256974016 0.20445502401680501 0.39386849256977347 0.20445502401686647
 0.18259825640560987 0.28966321719805627 0.029664758454939724 -0.6985732652313473 0.3938684925697778 0.20445502401687823 0.39386849256982787 0.2044550240169376
 0.39386849256973994 0.20445502401680501 0.39386849256977796 0.20445502401687823 0.05048351672575009 -0.7013486757477199 0.16177949813460088 0.2924386277143191
 0.39386849256977324 0.2044550240168664 0.39386849256982753 0.20445502401693735 0.16177949813460074 0.2924386277143189 0.05048351672590604 -0.7013486757476268
110500000.0 0.026695433996110497 -0.6976914139288706 0.1840549158285426 0.28984997430635706 0.39462482508759034 0.20392071981136584 0.3946248250876239 0.2039207198114274
 0.1840549158285425 0.2898499743063569 0.026695433996306448 -0.6976914139287682 0.39462482508762853 0.20392071981143914 0.39462482508767865 0.2039207198114984
 0.3946248250875901 0.20392071981136578 0.39462482508762853 0.2039207198114391 0.047488839782882854 -0.7005585880868375 0.16326151004176684 0.2927171484643168
 0.3946248250876236 0.20392071981142734 0.3946248250876785 0.20392071981149837 0.16326151004176678 0.2927171484643168 0.04748883978303936 -0.7005585880867446
111000000.0 0.023746581398425642 -0.6968025788606508 0.1855057954568465 0.29002767841125454 0.3953738115722804 0.20338745022480795 0.39537381157231416 0.2033874502248696
 0.1855057954568464 0.2900276784112543 0.023746581398621774 -0.6968025788605485 0.3953738115723188 0.20338745022488133 0.3953738115723692 0.2033874502249405
 0.3953738115722802 0.20338745022480792 0.39537381157231904 0.2033874502248813 0.04451394750566765 -0.6997608162420245 0.16473842934960106 0.29298591579262123
 0.39537381157231394 0.20338745022486945 0.39537381157236917 0.2033874502249405 0.16473842934960103 0.29298591579262107 0.04451394750582426 -0.6997608162419319
111500000.0 0.020818066949638205 -0.6959069390537099 0.1869508611233411 0.2901964504040949 0.3961155359634263 0.20285524432491817 0.3961155359634604 0.20285524432497995
 0.18695086112334103 0.2901964504040949 0.020818066949835016 -0.695906939053608 0.39611553596346516 0.20285524432499175 0.396115535963516 0.202855244325051
 0.396115535963426 0.2028552443249181 0.3961155359634652 0.20285524432499158 0.041558720046470966 -0.698955538253487 0.16621020802650516 0.29324504960386494
 0.3961155359634602 0.20285524432497964 0.3961155359635157 0.20285524432505067 0.16621020802650502 0.29324504960386477 0.041558720046628056 -0.6989555382533947
112000000.0 0.017909757118188676 -0.695004670511376 0.18839008043966352 0.290356410189673 0.3968500812209895 0.20232413016096307 0.39685008122102394 0.2023241301610249
 0.18839008043966354 0.29035641018967295 0.017909757118385505 -0.6950046705112745 0.3968500812210288 0.2023241301610365 0.3968500812210798 0.20232413016109577
 0.3968500812209894 0.20232413016096307 0.3968500812210288 0.2023241301610365 0.03862303758030901 -0.6981429293232182 0.16767679997753998 0.29349466900150806
 0.39685008122102383 0.20232413016102474 0.3968500812210796 0.2023241301610957 0.16767679997753987 0.29349466900150795 0.038623037580466466 -0.6981429293231258
112500000.0 0.015021518577199985 -0.6940959462575981 0.18982342275572486 0.29050767667687816 0.39757752933345275 0.20179413479047262 0.39757752933348744 0.20179413479053449
 0.1898234227557248 0.290507676676878 0.015021518577397466 -0.6940959462574968 0.3975775293334923 0.2017941347905462 0.39757752933354373 0.20179413479060554
 0.39757752933345253 0.20179413479047256 0.3975775293334926 0.20179413479054625 0.03570678032876132 -0.6973231618541597 0.16913816100416038 0.2937348922734325
 0.3975775293334872 0.20179413479053426 0.39757752933354357 0.20179413479060548 0.16913816100416032 0.29373489227343236 0.03570678032891915 -0.6973231618540675
113000000.0 0.012153218227823472 -0.6931809363806575 0.1912508591197881 0.29065036777014464 0.3982979613261091 0.20126528430536977 0.3982979613261441 0.20126528430543175
 0.1912508591197881 0.29065036777014464 0.012153218228021456 -0.6931809363805563 0.3982979613261491 0.2012652843054436 0.3982979613262008 0.20126528430550283
 0.3982979613261089 0.20126528430536988 0.3982979613261492 0.2012652843054436 0.03280982858312551 -0.6964964054889452 0.1705942487644826 0.2939658368784254
 0.39829796132614387 0.20126528430543153 0.3982979613262004 0.20126528430550267 0.1705942487644825 0.2939658368784252 0.03280982858328348 -0.6964964054888535
113500000.0 0.009304723221754331 -0.6922598080763723 0.19267236223916676 0.29078460036167764 0.3990114572694538 0.20073760385746164 0.3990114572694892 0.20073760385752357
 0.19267236223916673 0.29078460036167764 0.009304723221952464 -0.6922598080762714 0.3990114572694941 0.2007376038575354 0.39901145726954607 0.20073760385759457
 0.3990114572694536 0.20073760385746167 0.3990114572694943 0.2007376038575354 0.029932062726828003 -0.6956628271482251 0.1720450227340898 0.2941876194335237
 0.39901145726948894 0.20073760385752348 0.3990114572695458 0.20073760385759445 0.17204502273408973 0.2941876194335235 0.029932062726986324 -0.6956628271481335
114000000.0 0.006475900982948804 -0.6913327256908037 0.194087906441543 0.2909104903244256 0.39971809628766797 0.20021111768330443 0.39971809628770383 0.20021111768336652
 0.1940879064415429 0.2909104903244254 0.0064759009831472985 -0.6913327256907033 0.39971809628770866 0.20021111768337826 0.399718096287761 0.2002111176834375
 0.3997180962876678 0.2002111176833044 0.3997180962877089 0.20021111768337824 0.02707336325711192 -0.694822591068574 0.17349044416737638 0.2944003557021886
 0.39971809628770355 0.20021111768336633 0.3997180962877609 0.20021111768343744 0.1734904441673763 0.29440035570218853 0.027073363257270947 -0.6948225910684825
114500000.0 0.003666619228553303 -0.6903998507624595 0.19549746763690456 0.29102815250577263 0.4004179565671847 0.19968584912845974 0.4004179565672207 0.19968584912852172
 0.19549746763690456 0.29102815250577246 0.0036666192287522575 -0.6903998507623592 0.4004179565672259 0.19968584912853354 0.40041795656727824 0.19968584912859266
 0.4004179565671844 0.19968584912845963 0.40041795656722584 0.19968584912853352 0.024233610806019646 -0.6939758588399809 0.17493047605943476 0.29460416058328687
 0.40041795656722023 0.19968584912852153 0.40041795656727797 0.19968584912859266 0.17493047605943476 0.29460416058328676 0.024233610806178692 -0.6939758588398895
115000000.0 0.000876745989074781 -0.6894613420639971 0.19690102328009845 0.29113770072192613 0.4011111153653265 0.19916182067115262 0.4011111153653628 0.19916182067121474
 0.19690102328009843 0.291137700721926 0.0008767459892738122 -0.6894613420638971 0.40111111536536787 0.19916182067122645 0.4011111153654206 0.19916182067128566
 0.40111111536532645 0.1991618206711526 0.401111115365368 0.1991618206712264 0.021412686160685538 -0.6931227894429266 0.17636508310848434 0.2947991481008484
 0.4011111153653626 0.19916182067121457 0.4011111153654204 0.19916182067128546 0.17636508310848426 0.29479914810084834 0.021412686160844796 -0.6931227894428356
115500000.0 -0.001893850372194642 -0.6885173556434319 0.1982985523340008 0.29123924775297205 0.4017976490190098 0.198639053945348 0.40179764901904624 0.19863905394541018
 0.19829855233400062 0.2912392477529719 -0.001893850371995098 -0.688517355643332 0.40179764901905163 0.198639053945422 0.4017976490191045 0.19863905394548118
 0.4017976490190095 0.19863905394534795 0.4017976490190517 0.19863905394542197 0.0186104702829579 -0.6922635392850444 0.1777942316788445 0.2949854313945774
 0.40179764901904613 0.19863905394541012 0.40179764901910436 0.19863905394548115 0.17779423167884456 0.2949854313945773 0.01861047028311776 -0.6922635392849534
116000000.0 -0.004645301140472803 -0.6875680448648472 0.19969003523329593 0.29133290533857215 0.4024776329535007 0.19811756976325645 0.40247763295353767 0.19811756976331876
 0.19969003523329593 0.2913329053385721 -0.0046453011402728325 -0.6875680448647477 0.4024776329535427 0.19811756976333056 0.4024776329535963 0.1981175697633897
 0.4024776329535005 0.19811756976325648 0.402477632953543 0.1981175697633305 0.01582684432836726 -0.6913982622373699 0.17921788976445227 0.2951631227110878
 0.40247763295353756 0.19811756976331857 0.402477632953596 0.19811756976338957 0.1792178897644522 0.2951631227110876 0.015826844328527608 -0.6913982622372793
116500000.0 -0.007377737231488167 -0.6866135604486115 0.20107545384886863 0.2914187841742825 0.4031511416912217 0.19759738813728436 0.4031511416912589 0.19759738813734673
 0.20107545384886863 0.2914187841742824 -0.007377737231287698 -0.6866135604485123 0.4031511416912642 0.1975973881373585 0.40315114169131777 0.19759738813741767
 0.4031511416912215 0.1975973881372844 0.40315114169126437 0.1975973881373585 0.013061689664454649 -0.6905271096701792 0.18063602695292225 0.295332333395843
 0.40315114169125854 0.19759738813734654 0.40315114169131744 0.19759738813741767 0.18063602695292208 0.2953323333958428 0.01306168966461519 -0.6905271096700883
117000000.0 -0.010091289174165604 -0.6856540505111036 0.20245479145279952 0.2914969939084657 0.40381824886059464 0.19707852830143982 0.40381824886063217 0.19707852830150221
 0.2024547914527995 0.2914969939084656 -0.010091289173964924 -0.6856540505110046 0.40381824886063755 0.19707852830151396 0.40381824886069134 0.19707852830157307
 0.4038182488605944 0.1970785283014398 0.4038182488606376 0.1970785283015139 0.010314887888477401 -0.6896502304884166 0.18204861439015263 0.29549317388577134
 0.4038182488606319 0.19707852830150197 0.40381824886069106 0.19707852830157296 0.1820486143901526 0.29549317388577123 0.010314887888638316 -0.6896502304883263
117500000.0 -0.012786087093978275 -0.684689660603949 0.2038280326839637 0.29156764313977596 0.40447902720491863 0.19656100873220828 0.4044790272049563 0.19656100873227064
 0.20382803268396363 0.29156764313977585 -0.012786087093777296 -0.6846896606038503 0.4044790272049618 0.19656100873228244 0.4044790272050159 0.19656100873234164
 0.40447902720491835 0.19656100873220825 0.4044790272049618 0.19656100873228247 0.007586320844509887 -0.6887677711667168 0.18345562474547178 0.29564575370253665
 0.40447902720495604 0.19656100873227053 0.40447902720501566 0.1965610087323415 0.1834556247454717 0.29564575370253654 0.0075863208446710385 -0.6887677711666267
118000000.0 -0.015462260696948614 -0.6837205337527675 0.2051951635142286 0.29163083941519446 0.405133548591271 0.19604484716890933 0.4051335485913088 0.19604484716897175
 0.20519516351422856 0.2916308394151943 -0.015462260696747351 -0.6837205337526692 0.40513354859131445 0.19604484716898354 0.40513354859136874 0.19604484716904252
 0.40513354859127054 0.19604484716890921 0.4051335485913145 0.19604484716898352 0.004875870639949403 -0.6878798757840197 0.18485703217732685 0.2957901814464392
 0.4051335485913085 0.19604484716897155 0.40513354859136846 0.19604484716904255 0.18485703217732677 0.29579018144643915 0.004875870640110887 -0.6878798757839295
118500000.0 -0.018119939254280504 -0.6827468104954401 0.2065561712152451 0.2916866892285929 0.4057818840194281 0.19553006063354708 0.4057818840194665 0.19553006063360956
 0.20655617121524494 0.29168668922859275 -0.018119939254078676 -0.6827468104953417 0.4057818840194719 0.1955300606336215 0.40578188401952664 0.19553006063368042
 0.40578188401942794 0.19553006063354697 0.4057818840194722 0.19553006063362138 0.0021834196614486595 -0.6869866860577806 0.18625281229951227 0.29592656479092616
 0.40578188401946613 0.1955300606336093 0.4057818840195264 0.19553006063368034 0.18625281229951207 0.295926564790926 0.0021834196616106138 -0.6869866860576909
119000000.0 -0.020759251587606754 -0.6817686289198885 0.20791104432582863 0.2917352980198045 0.4064241036307989 0.1950166654501665 0.4064241036308376 0.195016665450229
 0.20791104432582863 0.2917352980198045 -0.02075925158740465 -0.6817686289197906 0.40642410363084336 0.1950166654502408 0.40642410363089826 0.19501666545029991
 0.40642410363079884 0.19501666545016647 0.40642410363084347 0.1950166654502408 -0.0004911494097166052 -0.6860883413777803 0.18764294214793475 0.296055010477689
 0.4064241036308374 0.19501666545022878 0.406424103630898 0.1950166654502997 0.18764294214793467 0.29605501047768884 -0.0004911494095544974 -0.6860883413776907
119500000.0 -0.023380326054834227 -0.6807861247013832 0.20925977261992598 0.29177677017418224 0.4070602767173639 0.19450467726372606 0.4070602767174027 0.19450467726378862
 0.2092597726199259 0.29177677017418213 -0.023380326054631972 -0.6807861247012854 0.4070602767174084 0.19450467726380036 0.4070602767174636 0.1945046772638594
 0.4070602767173636 0.19450467726372608 0.4070602767174085 0.1945046772638004 -0.0031479535828272936 -0.6851849788395342 0.18902740014791528 0.29617562431232614
 0.4070602767174025 0.19450467726378848 0.40706027671746337 0.1945046772638593 0.1890274001479152 0.29617562431232597 -0.00314795358266484 -0.6851849788394448
120000000.0 -0.025983290536570194 -0.6797994311393687 0.2106023470751604 0.2918112090226222 0.407690471730614 0.19399411105849948 0.40769047173065326 0.19399411105856215
 0.21060234707516037 0.29181120902262203 -0.025983290536367585 -0.679799431139271 0.40769047173065903 0.19399411105857384 0.4076904717307144 0.19399411105863282
 0.4076904717306139 0.1939941110584995 0.4076904717306591 0.19399411105857386 -0.005787109543435457 -0.6842767332773049 0.19040616608202185 0.2962885111605514
 0.40769047173065304 0.1939941110585619 0.40769047173071415 0.19399411105863273 0.1904061660820218 0.29628851116055116 -0.0057871095432727535 -0.6842767332772156
120500000.0 -0.028568272423114535 -0.6788086791938198 0.2119387598419539 0.2918387168420385 0.4083147562904892 0.19348498117601795 0.4083147562905286 0.19348498117608062
 0.21193875984195373 0.2918387168420384 -0.028568272422911826 -0.6788086791937226 0.40831475629053454 0.1934849811760924 0.40831475629059016 0.1934849811761514
 0.40831475629048897 0.19348498117601795 0.4083147562905347 0.19348498117609236 -0.008408733639597944 -0.6833637372967173 0.1917792210584335 0.29639377494492863
 0.4083147562905284 0.19348498117608048 0.40831475629058994 0.1934849811761513 0.19177922105843326 0.2963937749449286 -0.008408733639434894 -0.683363737296628
121000000.0 -0.03113539860200283 -0.6778139975211291 0.21326900421321623 0.291859394856263 0.408933197194302 0.19297730133256122 0.4089331971943417 0.19297730133262392
 0.2132690042132161 0.2918593948562629 -0.031135398601799744 -0.6778139975210322 0.40893319719434745 0.1929773013326357 0.40893319719440346 0.1929773013326946
 0.40893319719430166 0.19297730133256122 0.40893319719434756 0.19297730133263566 -0.011012941868619515 -0.6824461213069836 0.19314654747982887 0.29649151864211015
 0.4089331971943414 0.19297730133262375 0.4089331971944031 0.1929773013326945 0.19314654747982882 0.29649151864211004 -0.011012941868456217 -0.6824461213068946
121500000.0 -0.033684795446084666 -0.6768155125095241 0.2145930745946 0.29187334323735875 0.40954586042565044 0.19247108463621193 0.4095458604256905 0.19247108463627458
 0.2145930745946 0.29187334323735864 -0.03368479544588112 -0.6768155125094274 0.4095458604256964 0.1924710846362864 0.40954586042575264 0.1924710846363452
 0.4095458604256503 0.1924710846362118 0.4095458604256965 0.19247108463628634 -0.013599849864289047 -0.6815240135527358 0.1945081290128004 0.2965818442805633
 0.40954586042569024 0.19247108463627435 0.40954586042575236 0.19247108463634516 0.1945081290128003 0.29658184428056306 -0.013599849864125301 -0.6815240135526472
122000000.0 -0.036216588802120794 -0.6758133483140256 0.2159109664753124 0.29188066110732536 0.4101528111633121 0.19196634360348028 0.41015281116335234 0.19196634360354295
 0.2159109664753124 0.2918806611073253 -0.03621658880191704 -0.6758133483139291 0.41015281116335844 0.19196634360355475 0.41015281116341484 0.19196634360361362
 0.4101528111633119 0.1919663436034803 0.4101528111633585 0.19196634360355477 -0.016169572884597853 -0.6805975401454724 0.1958639505577853 0.2966648529387648
 0.41015281116335217 0.19196634360354287 0.4101528111634146 0.19196634360361353 0.19586395055778516 0.29666485293876466 -0.01616957288443405 -0.6805975401453837
122500000.0 -0.03873090397989029 -0.6748076268909438 0.21722267639947931 0.29188144654018117 0.4107541137901128 0.1914630901755123 0.4107541137901533 0.19146309017557506
 0.21722267639947943 0.2918814465401812 -0.038730903979686 -0.6748076268908475 0.4107541137901597 0.19146309017558696 0.4107541137902162 0.19146309017564572
 0.41075411379011256 0.1914630901755123 0.4107541137901596 0.19146309017558688 -0.018722225799928775 -0.6796668250946158 0.19721399821951371 0.29674064474384615
 0.4107541137901532 0.19146309017557497 0.410754113790216 0.19146309017564575 0.19721399821951371 0.2967406447438461 -0.01872222579976441 -0.6796668250945274
123000000.0 -0.04122786574178404 -0.6737984680319193 0.2185282019380562 0.2918757965644052 0.4113498319017711 0.1909613357338893 0.4113498319018119 0.190961335733952
 0.21852820193805605 0.291875796564405 -0.04122786574157961 -0.6737984680318234 0.41134983190181795 0.19096133573396382 0.41134983190187496 0.19096133573402255
 0.4113498319017707 0.19096133573388924 0.4113498319018181 0.19096133573396376 -0.021257923081699714 -0.6787319903381926 0.19855825927796786 0.2968093188706712
 0.4113498319018116 0.1909613357339518 0.4113498319018747 0.19096133573402252 0.19855825927796772 0.296809318870671 -0.021257923081535075 -0.6787319903381045
123500000.0 -0.0437075982928821 -0.6727859893975127 0.2198275416612771 0.291863807165721 0.41194002831570903 0.19046109111602869 0.41194002831575016 0.19046109111609144
 0.2198275416612771 0.2918638071657209 -0.04370759829267718 -0.6727859893974169 0.41194002831575643 0.19046109111610338 0.41194002831581356 0.19046109111616208
 0.41194002831570886 0.19046109111602855 0.41194002831575655 0.19046109111610326 -0.023776778791455913 -0.6777931557731285 0.19989672215984686 0.29687097354132946
 0.4119400283157499 0.19046109111609127 0.4119400283158132 0.19046109111616202 0.1998967221598468 0.2968709735413294 -0.023776778791291107 -0.6777931557730402
124000000.0 -0.04617022527149236 -0.6717703065503419 0.22112069511163995 0.29184557329021193 0.4125247650798325 0.18996236663019886 0.4125247650798738 0.18996236663026164
 0.22112069511164006 0.29184557329021193 -0.04617022527128733 -0.6717703065502464 0.4125247650798803 0.1899623666302735 0.41252476507993757 0.18996236663033209
 0.41252476507983227 0.1899623666301988 0.41252476507988034 0.18996236663027338 -0.026278906570393862 -0.6768504392851686 0.20122937641053754 0.2969257060250313
 0.41252476507987357 0.18996236663026153 0.4125247650799372 0.18996236663033217 0.20122937641053742 0.2969257060250313 -0.026278906570228907 -0.6768504392850806
124500000.0 -0.04861586974014273 -0.6707515329877796 0.22240766277741605 0.2918211888477457 0.4131041034812693 0.18946517207015168 0.413104103481311 0.18946517207021454
 0.22240766277741592 0.2918211888477456 -0.04861586973993736 -0.6707515329876842 0.4131041034813172 0.18946517207022648 0.4131041034813749 0.18946517207028507
 0.413104103481269 0.18946517207015165 0.41310410348131743 0.1894651720702263 -0.028764419629309854 -0.6759039567784241 0.20255621266657892 0.29697361263838296
 0.4131041034813108 0.18946517207021443 0.4131041034813747 0.18946517207028507 0.20255621266657878 0.29697361263838284 -0.02876441962914427 -0.6759039567783363
125000000.0 -0.05104465417701198 -0.6697297801742035 0.22368844606668262 0.2917907467156994 0.4136781040550701 0.1889695167293878 0.41367810405511213 0.18896951672945073
 0.22368844606668256 0.29179074671569927 -0.05104465417680614 -0.6697297801741083 0.4136781040551185 0.1889695167294625 0.4136781040551765 0.18896951672952125
 0.4136781040550699 0.18896951672938778 0.41367810405511857 0.1889695167294625 -0.03123343073895748 -0.6749538222045438 0.20387722262862393 0.29701478874603265
 0.41367810405511196 0.1889695167294506 0.4136781040551763 0.18896951672952114 0.20387722262862384 0.29701478874603254 -0.0312334307387916 -0.6749538222044564
125500000.0 -0.05345670046778561 -0.6687051575728145 0.22496304728186817 0.2917543387429685 0.41424682659286416 0.18847540941505958 0.4142468265929065 0.18847540941512267
 0.22496304728186806 0.2917543387429684 -0.05345670046757993 -0.6687051575727199 0.41424682659291273 0.1884754094151343 0.4142468265929711 0.18847540941519292
 0.4142468265928638 0.18847540941505964 0.41424682659291284 0.18847540941513427 -0.03368605222080882 -0.6740001475915218 0.2051923990348868 0.29704932876166845
 0.4142468265929061 0.18847540941512245 0.41424682659297063 0.1884754094151929 0.2051923990348866 0.2970493287616683 -0.03368605222064256 -0.6740001475914343
126000000.0 -0.05585212989793083 -0.6676777726770172 0.2262314695948056 0.29171205575424675 0.4148103301514674 0.18798285846152296 0.4148103301515101 0.1879828584615859
 0.2262314695948055 0.29171205575424647 -0.055852129897724694 -0.6676777726769231 0.4148103301515165 0.18798285846159762 0.41481033015157487 0.1879828584616562
 0.4148103301514672 0.1879828584615229 0.41481033015151664 0.18798285846159762 -0.03612239593820444 -0.6730430430721333 0.20650173563507487 0.2970773261493552
 0.41481033015150975 0.18798285846158563 0.4148103301515747 0.18798285846165616 0.20650173563507473 0.297077326149355 -0.03612239593803807 -0.6730430430720462
126500000.0 -0.05823106314536715 -0.6666477310413736 0.22749371702228707 0.2916639875545618 0.41536867306144465 0.1874918717435444 0.4153686730614875 0.18749187174360732
 0.22749371702228696 0.29166398755456174 -0.05823106314516089 -0.6666477310412793 0.4153686730614939 0.18749187174361906 0.4153686730615527 0.18749187174367768
 0.4153686730614444 0.1874918717435444 0.41536867306149405 0.1874918717436191 -0.03854257328788366 -0.6720826169120132 0.20780522716479907 0.2970988734251943
 0.4153686730614873 0.18749187174360732 0.4153686730615524 0.18749187174367768 0.20780522716479896 0.29709887342519425 -0.03854257328771692 -0.6720826169119261
127000000.0 -0.06059362027353489 -0.665615136312127 0.22874979440211085 0.29161022293405775 0.4159219129356161 0.18700245668917417 0.4159219129356594 0.18700245668923707
 0.22874979440211085 0.2916102229340577 -0.06059362027332808 -0.665615136312033 0.415921912935666 0.18700245668924886 0.41592191293572484 0.18700245668930746
 0.4159219129356159 0.18700245668917406 0.4159219129356659 0.18700245668924878 -0.0409466951918848 -0.6711189755373715 0.20910286932045638 0.2971140621592951
 0.4159219129356591 0.18700245668923698 0.41592191293572456 0.18700245668930732 0.20910286932045635 0.2971140621592949 -0.040946695191717876 -0.6711189755372847
127500000.0 -0.06293992072483838 -0.6645800902573098 0.22999970736961792 0.29155084967300765 0.4164701066775141 0.18651462029229154 0.41647010667755746 0.18651462029235458
 0.22999970736961783 0.2915508496730076 -0.06293992072463135 -0.6645800902572159 0.41647010667756407 0.18651462029236626 0.4164701066776232 0.18651462029242483
 0.4164701066775138 0.18651462029229163 0.4164701066775641 0.1865146202923663 -0.043334872089805396 -0.6701522235623519 0.2103946587345804 0.29712298297804274
 0.4164701066775572 0.18651462029235436 0.4164701066776229 0.18651462029242472 0.21039465873458033 0.2971229829780425 -0.04333487208963835 -0.6701522235622654
128000000.0 -0.06527008331446096 -0.6635426927964287 0.23124346233470666 0.29148595454704757 0.4170133104897805 0.18602836912483198 0.4170133104898242 0.186028369124895
 0.2312434623347067 0.2914859545470476 -0.06527008331425357 -0.663542692796335 0.41701331048983087 0.1860283691249068 0.4170133104898903 0.18602836912496531
 0.41701331048978035 0.18602836912483195 0.41701331048983087 0.18602836912490672 -0.045707213931413276 -0.6691824638160389 0.21168059295165456 0.29712572556665057
 0.417013310489824 0.18602836912489487 0.41701331048989 0.18602836912496523 0.21168059295165448 0.29712572556665046 -0.04570721393124557 -0.6691824638159524
128500000.0 -0.06758422622453597 -0.6625030420297384 0.23248106645932332 0.291415623332619 0.4175515798825093 0.18554370934870215 0.4175515798825531 0.18554370934876516
 0.23248106645932334 0.29141562333261906 -0.06758422622432843 -0.6625030420296452 0.41755157988256003 0.18554370934877695 0.4175515798826196 0.18554370934883535
 0.4175515798825091 0.18554370934870223 0.41755157988256014 0.18554370934877693 -0.048063830169598025 -0.6682097973691096 0.21296067040438119 0.29712237867198327
 0.4175515798825531 0.18554370934876505 0.4175515798826194 0.1855437093488353 0.21296067040438116 0.2971223786719832 -0.048063830169430354 -0.6682097973690235
129000000.0 -0.06988246699866639 -0.6614612342671056 0.2337125276354173 0.2913399408126079 0.4180849696815271 0.1850606467273919 0.41808496968157133 0.1850606467274549
 0.23371252763541733 0.2913399408126079 -0.06988246699845856 -0.6614612342670124 0.4180849696815782 0.1850606467274667 0.41808496968163794 0.1850606467275251
 0.4180849696815271 0.185060646727392 0.41808496968157827 0.18506064672746675 -0.050404829753656274 -0.6672343235601444 0.21423489039040272 0.29711303010563994
 0.4180849696815713 0.18506064672745487 0.41808496968163783 0.1850606467275251 0.21423489039040264 0.2971130301056397 -0.050404829753488284 -0.6672343235600584
129500000.0 -0.07216492253678103 -0.6604173640564655 0.23493785446335738 0.2912589907821717 0.4186135340366144 0.1845791866372914 0.41861353403665874 0.1845791866373544
 0.23493785446335724 0.29125899078217155 -0.07216492253657315 -0.6604173640563726 0.41861353403666557 0.18457918663736614 0.4186135340367257 0.18457918663742445
 0.41861353403661405 0.1845791866372913 0.4186135340366656 0.18457918663736608 -0.05273032112289649 -0.6662561400215861 0.21550325304946813 0.2970977667472849
 0.4186135340366586 0.18457918663735423 0.4186135340367255 0.18457918663742437 0.21550325304946813 0.2970977667472849 -0.05273032112272822 -0.6662561400215002
130000000.0 -0.07443170909031901 -0.6593715242118814 0.23615705623080085 0.2911728560547398 0.4191373264296611 0.18409933407871598 0.41913732642970586 0.18409933407877904
 0.2361570562308008 0.29117285605473975 -0.07443170909011079 -0.659371524211789 0.41913732642971274 0.18409933407879076 0.4191373264297731 0.18409933407884907
 0.419137326429661 0.18409933407871595 0.41913732642971285 0.18409933407879073 -0.0550404122005618 -0.6652753427053624 0.21676575934103887 0.2970766745482134
 0.41913732642970564 0.184099334078779 0.4191373264297728 0.18409933407884907 0.21676575934103876 0.29707667454821324 -0.055040412200393 -0.6652753427052763
130500000.0 -0.07668294225772979 -0.6583238058412014 0.2373701428920085 0.29108161846818437 0.4196563996827622 0.18362109368665477 0.4196563996828073 0.18362109368671772
 0.23737014289200842 0.29108161846818426 -0.07668294225752095 -0.658323805841109 0.4196563996828142 0.18362109368672958 0.4196563996828748 0.18362109368678786
 0.4196563996827621 0.1836210936866548 0.4196563996828143 0.1836210936867296 -0.057335210388055606 -0.664292025908168 0.21802241102232991 0.297049838535144
 0.4196563996828071 0.1836210936867176 0.41965639968287455 0.18362109368678772 0.21802241102232983 0.29704983853514383 -0.05733521038788689 -0.6642920259080828
131000000.0 -0.07891873698028239 -0.6572742983733258 0.23857712504759856 0.2909853588911424 0.4201708059662432 0.18314446974123896 0.4201708059662885 0.18314446974130197
 0.2385771250475985 0.29098535889114224 -0.07891873698007311 -0.6572742983732337 0.4201708059662955 0.18314446974131388 0.42017080596635636 0.18314446974137197
 0.42017080596624296 0.183144469741239 0.4201708059662957 0.18314446974131393 -0.059614822559467054 -0.6633062822964141 0.21927321062677882 0.2970173428142235
 0.4201708059662882 0.1831444697413018 0.4201708059663561 0.1831444697413719 0.21927321062677868 0.29701734281422326 -0.05961482255929811 -0.663306282296329
131500000.0 -0.08113920753817405 -0.6562230895850851 0.2397780139247335 0.2908841572294883 0.4206805968066212 0.18266946617794655 0.42068059680666675 0.18266946617800958
 0.23977801392473347 0.2908841572294883 -0.08113920753796484 -0.6562230895849931 0.4206805968066738 0.1826694661780214 0.42068059680673486 0.18266946617807955
 0.4206805968066211 0.18266946617794644 0.42068059680667386 0.1826694661780213 -0.06187935505638232 -0.6623182029308416 0.22051816144293723 0.2969792705752374
 0.4206805968066665 0.18266946617800947 0.4206805968067346 0.18266946617807941 0.22051816144293712 0.2969792705752373 -0.06187935505621301 -0.6623182029307564
132000000.0 -0.08334446754692826 -0.6551702656277312 0.24097282135773287 0.290778092432943 0.42118582309449837 0.18219608659754316 0.42118582309454417 0.18219608659760617
 0.24097282135773285 0.2907780924329429 -0.0833444675467189 -0.6551702656276396 0.4211858230945514 0.18219608659761793 0.4211858230946125 0.18219608659767592
 0.42118582309449815 0.18219608659754308 0.4211858230945514 0.18219608659761788 -0.0641289136829804 -0.6613278772908087 0.22175726749378033 0.29693570409601333
 0.42118582309454394 0.18219608659760606 0.4211858230946123 0.182196086597676 0.22175726749378033 0.2969357040960132 -0.06412891368281076 -0.6613278772907237
132500000.0 -0.08553462995407132 -0.6541159110530501 0.24216155976910236 0.29066724250181125 0.4216865350923847 0.18172433427576948 0.4216865350924309 0.1817243342758326
 0.24216155976910236 0.29066724250181114 -0.0855346299538616 -0.6541159110529589 0.42168653509243803 0.18172433427584422 0.4216865350924996 0.18172433427590232
 0.4216865350923845 0.18172433427576945 0.4216865350924381 0.1817243342758443 -0.06636360370140025 -0.6603353932982541 0.22299053351642653 0.29688672474700784
 0.4216865350924307 0.1817243342758324 0.42168653509249926 0.18172433427590232 0.22299053351642645 0.2968867247470077 -0.06636360370123019 -0.6603353932981694
133000000.0 -0.08770980703608527 -0.6530601088390982 0.24334424215097872 0.2905516844938406 0.4221827824424535 0.18125421217277984 0.4221827824424997 0.18125421217284277
 0.24334424215097866 0.29055168449384056 -0.08770980703587541 -0.6530601088390069 0.42218278244250695 0.18125421217285453 0.4221827824425685 0.18125421217291257
 0.42218278244245305 0.1812542121727797 0.42218278244250695 0.18125421217285445 -0.06858352982737397 -0.6593408373413349 0.22421796494226268 0.29683241299607
 0.42218278244249946 0.1812542121728426 0.4221827824425682 0.1812542121729124 0.2242179649422626 0.2968324129960699 -0.068583529827204 -0.6593408373412503
133500000.0 -0.0898701103956211 -0.6520029404155636 0.24452088204697578 0.2904314945311923 0.4226746141742224 0.18078572294233777 0.422674614174269 0.18078572294240072
 0.24452088204697567 0.2904314945311923 -0.08987011039541094 -0.6520029404154727 0.42267461417427626 0.18078572294241257 0.4226746141743381 0.18078572294247044
 0.42267461417422225 0.1807857229423378 0.4226746141742763 0.1807857229424125 -0.07078879622611932 -0.6583442942977464 0.2254395678774692 0.2967728484133679
 0.42267461417426877 0.18078572294240064 0.42267461417433794 0.18078572294247042 0.2254395678774691 0.2967728484133677 -0.07078879622594897 -0.6583442942976621
134000000.0 -0.09201565095897044 -0.6509444856887636 0.24569149353443198 0.2903067478075165 0.42316207871216854 0.1803188689407766 0.4231620787122154 0.1803188689408396
 0.24569149353443193 0.2903067478075163 -0.09201565095875996 -0.650944485688673 0.4231620787122228 0.1803188689408513 0.42316207871228484 0.18031886894090923
 0.4231620787121682 0.18031886894077648 0.42316207871222283 0.1803188689408513 -0.072979506508482 -0.6573458475577284 0.22665534908393872 0.2967081096764738
 0.4231620787122151 0.1803188689408395 0.4231620787122847 0.18031886894090926 0.2266553490839387 0.29670810967647365 -0.0729795065083113 -0.657345847557644
134500000.0 -0.09414653897378268 -0.6498848230662743 0.2468560912070482 0.2901775185951245 0.42364522388326636 0.1798536522357289 0.42364522388331344 0.17985365223579192
 0.24685609120704807 0.2901775185951243 -0.09414653897357214 -0.6498848230661839 0.42364522388332077 0.17985365223580363 0.4236452238833831 0.17985365223586156
 0.42364522388326603 0.17985365223572886 0.42364522388332093 0.17985365223580363 -0.07515576372732224 -0.6563455790467546 0.22786531596058282 0.2966382745755973
 0.42364522388331316 0.17985365223579175 0.4236452238833828 0.17985365223586142 0.22786531596058268 0.2966382745755972 -0.07515576372715138 -0.6563455790466706
135000000.0 -0.0962628840070248 -0.648824029481203 0.24801469015791058 0.2900438802522509 0.4241240969244559 0.179390074614631 0.4241240969245033 0.17939007461469408
 0.2480146901579105 0.29004388025225075 -0.09626288400681393 -0.6488240294811128 0.42412409692451053 0.17939007461470566 0.4241240969245731 0.17939007461476358
 0.4241240969244557 0.17939007461463094 0.4241240969245107 0.17939007461470566 -0.07731767037413907 -0.6553435692479171 0.22906947652501983 0.2965634200189575
 0.4241240969245031 0.17939007461469397 0.4241240969245729 0.1793900746147636 0.22906947652501972 0.2965634200189575 -0.0773176703739677 -0.6553435692478331
135500000.0 -0.09836479494317105 -0.6477621804161038 0.24916730596289266 0.28990590523039794 0.42459874449003754 0.17892813759300907 0.42459874449008506 0.17892813759307205
 0.24916730596289255 0.2899059052303978 -0.09836479494295979 -0.6477621804160139 0.42459874449009255 0.1789281375930838 0.4245987444901553 0.1789281375931415
 0.4245987444900373 0.17892813759300896 0.4245987444900927 0.1789281375930837 -0.07946532837592377 -0.6543398972240013 0.23026783939564074 0.2964836220382879
 0.4245987444900847 0.1789281375930718 0.42459874449015506 0.1789281375931414 0.2302678393956406 0.29648362203828776 -0.0794653283757526 -0.6543398972239175
136000000.0 -0.10045237998261908 -0.6466993499265432 0.25031395466442913 0.28976366508175566 0.4250692126589931 0.17846784242255068 0.42506921265904096 0.17846784242261385
 0.25031395466442913 0.28976366508175544 -0.10045237998240764 -0.6466993499264535 0.4250692126590484 0.17846784242262537 0.4250692126591115 0.17846784242268315
 0.4250692126589928 0.1784678424225506 0.4250692126590485 0.17846784242262537 -0.08159883909223917 -0.6533346406392602 0.23146041377404428 0.29639895579446507
 0.42506921265904074 0.17846784242261354 0.4250692126591113 0.17846784242268307 0.23146041377404425 0.29639895579446496 -0.08159883909206748 -0.6533346406391766
136500000.0 -0.10252574664032493 -0.6456356106643157 0.25145465275565465 0.28961723046669163 0.42553554694223283 0.17800919009897007 0.4255355469422811 0.17800919009903304
 0.25145465275565465 0.2896172304666915 -0.10252574664011335 -0.6456356106642265 0.42553554694228857 0.1780091900990447 0.42553554694235185 0.17800919009910243
 0.4255355469422327 0.17800919009897 0.4255355469422887 0.17800919009904467 -0.08371830331251232 -0.6523278757808868 0.2326472094278371 0.29630949558325526
 0.42553554694228074 0.17800919009903288 0.4255355469423516 0.17800919009910235 0.23264720942783695 0.2963094955832552 -0.08371830331234054 -0.6523278757808035
137000000.0 -0.10458500174464706 -0.6445710339003204 0.2525894171649027 0.2894666711613034 0.4259977922897696 0.17755218136966722 0.42599779228981777 0.1775521813697302
 0.2525894171649026 0.28946667116130337 -0.10458500174443504 -0.6445710339002308 0.42599779228982554 0.17755218136974205 0.4259977922898889 0.17755218136979953
 0.4259977922897694 0.1775521813696672 0.4259977922898256 0.17755218136974185 -0.08582382125354229 -0.6513196775801939 0.2338282366737932 0.29621531484116964
 0.4259977922898176 0.1775521813697301 0.42599779228988865 0.17755218136979953 0.23382823667379307 0.2962153148411697 -0.0858238212533702 -0.6513196775801104
137500000.0 -0.1066302514363949 -0.6435056895470932 0.25371826524055635 0.28931205606502847 0.42645599309781634 0.17709681674119207 0.42645599309786514 0.17709681674125516
 0.2537182652405562 0.28931205606502836 -0.10663025143618259 -0.6435056895470042 0.4264559930978727 0.17709681674126687 0.4264559930979364 0.17709681674132455
 0.4264559930978162 0.17709681674119213 0.42645599309787274 0.1770968167412669 -0.08791549255721048 -0.6503101196334943 0.2350035063613669 0.29611648615142233
 0.4264559930978647 0.17709681674125494 0.42645599309793625 0.17709681674132438 0.2350035063613668 0.2961164861514221 -0.08791549255703814 -0.6503101196334115
138000000.0 -0.10866160116807669 -0.6424396461810105 0.25484121473624505 0.2891534532083039 0.4269101932158126 0.17664309648651394 0.42691019321586143 0.17664309648657683
 0.2548412147362451 0.2891534532083039 -0.10866160116786433 -0.6424396461809215 0.4269101932158691 0.17664309648658852 0.4269101932159331 0.176643096486646
 0.4269101932158124 0.17664309648651394 0.42691019321586915 0.17664309648658846 -0.0899934162883889 -0.6492992742226987 0.23617302985655253 0.29601308124998504
 0.4269101932158612 0.17664309648657672 0.4269101932159328 0.1766430964866459 0.23617302985655245 0.2960130812499849 -0.08999341628821644 -0.649299274222616
138500000.0 -0.11067915570333574 -0.6413729710641558 0.25595828379638363 0.28899092976027424 0.42736043595337264 0.1761910206521023 0.4273604359534217 0.17619102065216533
 0.2559582837963835 0.2889909297602742 -0.1106791557031233 -0.6413729710640672 0.4273604359534295 0.17619102065217698 0.4273604359534935 0.17619102065223435
 0.42736043595337236 0.17619102065210238 0.4273604359534296 0.17619102065217696 -0.09205769093304468 -0.6482872123356198 0.23733681902608736 0.295905171031731
 0.4273604359534215 0.17619102065216521 0.4273604359534932 0.17619102065223435 0.23733681902608725 0.2959051710317308 -0.09205769093287186 -0.6482872123355371
139000000.0 -0.11268301911657394 -0.6403057301658647 0.2570694909420419 0.28882455203653695 0.4278067640871622 0.17574058906482645 0.4278067640872116 0.17574058906488946
 0.2570694909420419 0.28882455203653695 -0.11268301911636114 -0.6403057301657761 0.4278067640872193 0.17574058906490111 0.42780676408728363 0.17574058906495843
 0.427806764087162 0.17574058906482648 0.4278067640872194 0.17574058906490103 -0.0941084143965277 -0.6472740036859971 0.23849488622199055 0.2957928255566622
 0.42780676408721136 0.17574058906488937 0.42780676408728324 0.1757405890649585 0.23849488622199044 0.2957928255566621 -0.09410841439635466 -0.6472740036859145
139500000.0 -0.11467329479275058 -0.6392379881839428 0.2581748550571455 0.2886543855069239 0.4282492198676985 0.175291801338673 0.42824921986774817 0.17529180133873593
 0.25817485505714544 0.28865438550692385 -0.11467329479253767 -0.6392379881838545 0.42824921986775577 0.17529180133874764 0.42824921986782033 0.17529180133880493
 0.42824921986769826 0.17529180133867303 0.42824921986775594 0.17529180133874764 -0.09614568400204287 -0.6462597167332398 0.23964724426643255 0.2956761140562138
 0.4282492198677479 0.17529180133873576 0.4282492198678201 0.17529180133880487 0.23964724426643252 0.2956761140562137 -0.09614568400186974 -0.6462597167331576
140000000.0 -0.11665008542735808 -0.6381698085655687 0.259274395374996 0.2884804948033142 0.42868784502607665 0.17484465688129208 0.4286878450261265 0.17484465688135503
 0.25927439537499586 0.288480494803314 -0.11665008542714492 -0.6381698085654808 0.4286878450261344 0.17484465688136658 0.42868784502619905 0.1748446568814238
 0.42868784502607643 0.1748446568812921 0.4286878450261345 0.17484465688136666 -0.09816959648929784 -0.6452444187018923 0.24079390643693066 0.2955551049396307
 0.42868784502612617 0.17484465688135487 0.4286878450261988 0.17484465688142384 0.24079390643693047 0.29555510493963055 -0.09816959648912443 -0.6452444187018103
140500000.0 -0.11861349302655969 -0.6371012535278803 0.2603681314651078 0.28830294372746984 0.4291226807806212 0.17439915490037078 0.4291226807806713 0.17439915490043373
 0.2603681314651077 0.2883029437274698 -0.11861349302634631 -0.6371012535277925 0.4291226807806793 0.17439915490044539 0.42912268078074417 0.17439915490050253
 0.42912268078062105 0.17439915490037083 0.4291226807806793 0.1743991549004453 -0.10018024801332044 -0.6442281756008265 0.2419348864518633 0.29542986580040886
 0.429122680780671 0.17439915490043364 0.4291226807807439 0.17439915490050253 0.2419348864518632 0.2954298658004088 -0.10018024801314666 -0.6442281756007445
141000000.0 -0.12056361890749252 -0.6360323840782499 0.26145608322035524 0.28812179525889564 0.4295537678434635 0.17395529440984372 0.429553767843514 0.17395529440990673
 0.2614560832203552 0.28812179525889553 -0.12056361890727896 -0.6360323840781624 0.4295537678435219 0.1739552944099182 0.42955376784358706 0.1739552944099755
 0.42955376784346333 0.17395529440984364 0.429553767843522 0.17395529440991817 -0.1021777341434431 -0.6432110522421609 0.2430701984563005 0.29530046342279903
 0.42955376784351373 0.17395529440990654 0.42955376784358684 0.1739552944099754 0.24307019845630035 0.295300463422799 -0.10217773414326888 -0.6432110522420789
141500000.0 -0.12250056369872311 -0.6349632600342546 0.2625382708444229 0.2879371115627118 0.42998114642704466 0.17351307423593904 0.4299811464270954 0.17351307423600199
 0.2625382708444228 0.28793711156271157 -0.1225005636985091 -0.6349632600341675 0.42998114642710333 0.17351307423601348 0.4299811464271687 0.17351307423607065
 0.4299811464270443 0.17351307423593898 0.4299811464271034 0.17351307423601353 -0.10416214986244708 -0.642193112259914 0.2441998570081417 0.2951669637883638
 0.42998114642709495 0.17351307423600168 0.42998114642716845 0.17351307423607057 0.2441998570081417 0.2951669637883636 -0.10416214986227289 -0.6421931122598326
142000000.0 -0.1244244273408539 -0.6338939400433424 0.2636147148395543 0.2877489539975417 0.4304048562505441 0.173072493023069 0.430404856250595 0.17307249302313202
 0.26361471483955423 0.2877489539975415 -0.12442442734063995 -0.6338939400432555 0.4304048562506031 0.1730724930231435 0.4304048562506686 0.17307249302320052
 0.4304048562505439 0.17307249302306907 0.43040485625060315 0.1730724930231435 -0.10613358956586352 -0.6411744181283942 0.2453238770645585 0.2950294320825861
 0.43040485625059477 0.17307249302313188 0.43040485625066843 0.17307249302320052 0.2453238770645584 0.29502943208258603 -0.10613358956568905 -0.6411744181283127
142500000.0 -0.12633530908727705 -0.632824481602199 0.26468543599459393 0.2875573831234063 0.4308249365462355 0.17263354923956595 0.4308249365462866 0.1726335492396289
 0.2646854359945939 0.28755738312340623 -0.12633530908706256 -0.6328244816021121 0.4308249365462948 0.17263354923964044 0.4308249365463605 0.17263354923969743
 0.4308249365462354 0.1726335492395659 0.4308249365462948 0.1726335492396404 -0.10809214706142381 -0.6401550311803234 0.2464422739687354 0.2948879327015232
 0.4308249365462863 0.17263354923962873 0.4308249365463602 0.1726335492396974 0.24644227396873528 0.29488793270152314 -0.10809214706124899 -0.6401550311802419
143000000.0 -0.1282333075050629 -0.6317549410758213 0.265750455373315 0.2873624587096242 0.4312414260657677 0.17219624118326912 0.43124142606581894 0.17219624118333213
 0.2657504553733149 0.28736245870962407 -0.12823330750484818 -0.6317549410757346 0.4312414260658272 0.1721962411833436 0.43124142606589305 0.1721962411834006
 0.4312414260657674 0.17219624118326912 0.4312414260658271 0.17219624118334348 -0.11003791556865679 -0.6391350116247062 0.2475550634369034 0.2947425292585017
 0.4312414260658188 0.17219624118333196 0.4312414260658927 0.17219624118340052 0.2475550634369033 0.29474252925850153 -0.11003791556848169 -0.6391350116246249
143500000.0 -0.13011852047598907 -0.6306853737162986 0.26680979430302937 0.2871642397427109 0.4316543630863732 0.17176056698696524 0.43165436308642474 0.171760566987028
 0.26680979430302937 0.2871642397427109 -0.1301185204757741 -0.630685373716212 0.431654363086433 0.17176056698703973 0.43165436308649907 0.1717605669870965
 0.43165436308637295 0.1717605669869652 0.43165436308643307 0.17176056698703962 -0.11197098771862786 -0.6381144185644431 0.24866226154566295 0.2945932845908481
 0.43165436308642446 0.17176056698702788 0.43165436308649874 0.1717605669870965 0.24866226154566284 0.294593284590848 -0.11197098771845287 -0.6381144185643621
144000000.0 -0.13199104519769483 -0.6296158336813062 0.267863474363473 0.28696278443427725 0.43206378541700385 0.17132652462368703 0.43206378541705576 0.1713265246237498
 0.267863474363473 0.2869627844342771 -0.13199104519747987 -0.6296158336812199 0.43206378541706386 0.1713265246237613 0.4320637854171302 0.17132652462381812
 0.4320637854170037 0.1713265246236869 0.432063785417064 0.17132652462376127 -0.11389145555381486 -0.6370933100136892 0.2497638847195879 0.2944402607666529
 0.4320637854170555 0.1713265246237495 0.43206378541713003 0.17132652462381795 0.2497638847195878 0.29444026076665275 -0.11389145555363969 -0.6370933100136086
144500000.0 -0.13385097818496455 -0.6285463740523167 0.26891151737596247 0.2867581502289192 0.4324697304043939 0.17089411191187207 0.4324697304044459 0.1708941119119349
 0.2689115173759624 0.2867581502289191 -0.13385097818474959 -0.6285463740522307 0.4324697304044541 0.17089411191194637 0.43246973040452064 0.17089411191200307
 0.4324697304043936 0.170894111911872 0.43246973040445413 0.17089411191194628 -0.11579941052811696 -0.6360717429149662 0.2508599497191095 0.2942835190915613
 0.4324697304044456 0.17089411191193465 0.4324697304045204 0.170894111912003 0.2508599497191094 0.2942835190915612 -0.11579941052794135 -0.6360717429148856
145000000.0 -0.13569841527112858 -0.6274770468525303 0.2699539453928148 0.2865503938121009 0.4328722349390494 0.17046332652038884 0.43287223493910154 0.1704633265204517
 0.2699539453928148 0.2865503938121009 -0.1356984152709132 -0.6274770468524444 0.43287223493911 0.17046332652046323 0.43287223493917676 0.17046332652051982
 0.43287223493904925 0.17046332652038887 0.43287223493911 0.1704633265204631 -0.11769494350699032 -0.6350497731560254 0.25195047362867123 0.2941231201155889
 0.4328722349391013 0.1704633265204515 0.4328722349391763 0.17046332652051976 0.251950473628671 0.2941231201155888 -0.11769494350681456 -0.6350497731559448
145500000.0 -0.13753345160958252 -0.6264079030645294 0.2709907806870298 0.2863395711180234 0.43327133546116864 0.1700341659734283 0.4332713354612211 0.17003416597349114
 0.27099078068702975 0.2863395711180232 -0.137533451609367 -0.6264079030644438 0.4332713354612295 0.1700341659735025 0.43327133546129637 0.17003416597355908
 0.4332713354611683 0.1700341659734283 0.4332713354612296 0.17003416597350252 -0.11957814476771089 -0.6340274555864707 0.2530354738451526 0.29395912363995735
 0.4332713354612209 0.17003416597349091 0.43327133546129626 0.1700341659735592 0.2530354738451527 0.2939591236399573 -0.11957814476753494 -0.6340274555863904
146000000.0 -0.13935618167541838 -0.6253389926476619 0.2720220457422251 0.2861257373374783 0.4336670679664887 0.16960662765526824 0.4336670679665416 0.169606627655331
 0.2720220457422249 0.28612573733747815 -0.13935618167520267 -0.6253389926475764 0.4336670679665497 0.16960662765534248 0.4336670679666169 0.16960662765539902
 0.4336670679664885 0.1696066276552683 0.4336670679665498 0.16960662765534243 -0.12144910399975595 -0.6330048440341375 0.254114968066557 0.2937915887239467
 0.43366706796654114 0.1696066276553308 0.43366706796661664 0.16960662765539897 0.2541149680665568 0.29379158872394645 -0.12144910399957971 -0.6330048440340574
146500000.0 -0.14116669926716216 -0.6242703645551543 0.2730477632428213 0.28590894692568375 0.43405946801206186 0.16918070881491273 0.4340594680121149 0.16918070881497543
 0.27304776324282126 0.2859089469256837 -0.14116669926694608 -0.6242703645550692 0.43405946801212336 0.16918070881498698 0.43405946801219064 0.1691807088150434
 0.43405946801206174 0.16918070881491262 0.4340594680121234 0.16918070881498684 -0.12330791030530049 -0.6319819913212376 0.25518897428095444 0.2936205736917598
 0.43405946801211465 0.1691807088149751 0.4340594680121904 0.1691807088150432 0.2551889742809543 0.29362057369175965 -0.12330791030512417 -0.6319819913211577
147000000.0 -0.14296509750861536 -0.623202066750961 0.27406795606447276 0.2856892536101001 0.4344485707219627 0.16875640657060903 0.4344485707220158 0.16875640657067167
 0.27406795606447276 0.2856892536101 -0.14296509750839934 -0.6232020667508763 0.43444857072202436 0.16875640657068303 0.4344485707220917 0.16875640657073956
 0.4344485707219625 0.16875640657060892 0.4344485707220243 0.16875640657068303 -0.1251546521998298 -0.6309589492802671 0.25625751075568165 0.2934461361393988
 0.4344485707220156 0.16875640657067148 0.4344485707220915 0.16875640657073945 0.25625751075568165 0.29344613613939863 -0.12515465219965327 -0.6309589492801873
147500000.0 -0.14475146885079818 -0.6221341462263519 0.27508264726473575 0.28546671039821975 0.4348344107929223 0.16833371791424545 0.4348344107929758 0.168333717914308
 0.2750826472647357 0.2854667103982197 -0.14475146885058193 -0.622134146226267 0.43483441079298407 0.16833371791431953 0.43483441079305196 0.16833371791437585
 0.4348344107929221 0.16833371791424548 0.43483441079298424 0.16833371791431948 -0.12698941761285626 -0.6299357687696842 0.2573205960267884 0.293268332941545
 0.4348344107929755 0.1683337179143078 0.43483441079305163 0.16833371791437565 0.2573205960267883 0.29326833294154475 -0.12698941761267968 -0.6299357687696048
148000000.0 -0.14652590507398508 -0.621066649016241 0.27609186007397346 0.28524136958533414 0.43521702249989663 0.16791263971563383 0.43521702249995026 0.1679126397156965
 0.27609186007397346 0.28524136958533397 -0.14652590507376861 -0.6210666490161564 0.43521702249995886 0.16791263971570786 0.4352170225000267 0.16791263971576417
 0.43521702249989647 0.16791263971563375 0.43521702249995897 0.16791263971570783 -0.12881229388874516 -0.6289124996893588 0.2583782488887279 0.2930872202584446
 0.43521702249995003 0.16791263971569625 0.4352170225000265 0.16791263971576414 0.2583782488887278 0.29308722025844447 -0.12881229388856816 -0.6289124996892793
148500000.0 -0.14828849728983504 -0.6199996202152641 0.2770956178864899 0.28501328276227017 0.43559643970156303 0.16749316872667833 0.43559643970161693 0.16749316872674086
 0.27709561788648984 0.2850132827622701 -0.14828849728961815 -0.6199996202151795 0.4355964397016255 0.16749316872675232 0.43559643970169354 0.16749316872680847
 0.4355964397015629 0.1674931687266783 0.4355964397016256 0.16749316872675232 -0.13062336778763858 -0.6278891909957942 0.2594304883842881 0.2929028535427932
 0.4355964397016166 0.16749316872674067 0.4355964397016932 0.16749316872680847 0.2594304883842879 0.2929028535427931 -0.1306233677874616 -0.6278891909957149
149000000.0 -0.15003933594360824 -0.6189331039936011 0.2780939442518896 0.28478250082309803 0.43597269584574966 0.1670753015854339 0.4359726958458037 0.16707530158549647
 0.2780939442518895 0.2847825008230979 -0.15003933594339144 -0.6189331039935172 0.4359726958458124 0.16707530158550787 0.4359726958458806 0.1670753015855641
 0.4359726958457495 0.16707530158543407 0.43597269584581255 0.16707530158550798 -0.13242272548648104 -0.6268658907171288 0.2604773337947567 0.2927152875466187
 0.43597269584580356 0.16707530158549636 0.43597269584588044 0.16707530158556405 0.26047733379475646 0.29271528754661846 -0.13242272548630377 -0.6268658907170499
149500000.0 -0.15177851081646934 -0.6178671436125559 0.27908686286665657 0.284549073972805 0.43634582397479643 0.16665903482005884 0.4363458239748508 0.16665903482012132
 0.2790868628666565 0.2845490739728049 -0.15177851081625232 -0.617867143612472 0.43634582397485944 0.16665903482013272 0.43634582397492794 0.16665903482018887
 0.43634582397479627 0.16665903482005884 0.4363458239748596 0.16665903482013267 -0.13421045258013495 -0.6258426459679164 0.26151880463031646 0.2925245763281581
 0.43634582397485044 0.16665903482012118 0.4363458239749276 0.16665903482018882 0.26151880463031635 0.2925245763281579 -0.13421045257995745 -0.6258426459678373
150000000.0 -0.15350611102787018 -0.6168017814398884 0.2800743975659517 0.2843130517349364 0.436715856730849 0.16624436485266036 0.4367158567309034 0.16624436485272273
 0.2800743975659516 0.2843130517349362 -0.15350611102765277 -0.6168017814398048 0.43671585673091234 0.16624436485273417 0.4367158567309808 0.1662443648527902
 0.43671585673084873 0.16624436485266023 0.43671585673091234 0.16624436485273414 -0.135986634082592 -0.6248195029636872 0.2625549206206679 0.29233077325872764
 0.43671585673090313 0.1662443648527225 0.43671585673098057 0.16624436485279012 0.2625549206206678 0.2923307732587275 -0.1359866340824144 -0.6248195029636084
150500000.0 -0.15522222503801103 -0.6157370589649088 0.28105657231561876 0.28407448295919907 0.43708282636108553 0.16583128800304017 0.4370828263611403 0.16583128800310262
 0.2810565723156186 0.2840744829591988 -0.15522222503779357 -0.6157370589648254 0.4370828263611489 0.16583128800311397 0.43708282636121776 0.16583128800316996
 0.43708282636108525 0.16583128800304006 0.43708282636114915 0.16583128800311397 -0.13775135442826988 -0.6237965070352989 0.263585701705872 0.2921339310295818
 0.43708282636114 0.16583128800310232 0.4370828263612176 0.16583128800316987 0.2635857017058718 0.2921339310295816 -0.13775135442809192 -0.6237965070352204
151000000.0 -0.1569269406503769 -0.6146730168133338 0.2820334112043997 0.283833415829027 0.4374467647228776 0.16541980049233956 0.43744676472293265 0.16541980049240196
 0.2820334112043996 0.28383341582902705 -0.15692694065015905 -0.6146730168132504 0.4374467647229415 0.16541980049241353 0.4374467647230105 0.16541980049246943
 0.4374467647228775 0.16541980049233967 0.4374467647229416 0.1654198004924135 -0.13950469747339422 -0.6227737026430729 0.26461116802741147 0.291934101658759
 0.4374467647229324 0.16541980049240185 0.43744676472301025 0.16541980049246935 0.26461116802741136 0.29193410165875894 -0.13950469747321623 -0.6227737026429945
151500000.0 -0.158620345014345 -0.6136096947619091 0.28300493843635177 0.28358989786910777 0.4378077032888856 0.16500989844658775 0.43780770328894064 0.16500989844665018
 0.28300493843635166 0.28358989786910765 -0.15862034501412717 -0.613609694761826 0.4378077032889495 0.16500989844666147 0.4378077032890186 0.16500989844671743
 0.4378077032888853 0.16500989844658787 0.43780770328894963 0.16500989844666156 -0.14124674649746385 -0.621751133390722 0.2656313399194649 0.2917313364979136
 0.4378077032889405 0.16500989844665007 0.4378077032890184 0.16500989844671735 0.26563133991946475 0.29173133649791355 -0.1412467464972855 -0.6217511333906438
152000000.0 -0.16030252462785985 -0.6125471317528024 0.2839711783234625 0.283343975952867 0.4381656731520873 0.16460157790015603 0.4381656731521427 0.16460157790021837
 0.2839711783234624 0.28334397595286687 -0.16030252462764194 -0.6125471317527197 0.43816567315215155 0.16460157790022964 0.4381656731522209 0.16460157790028548
 0.4381656731520872 0.164601577900156 0.4381656731521518 0.1646015779002297 -0.14297758420479253 -0.6207288420390729 0.26664623790038966 0.2915256862391301
 0.43816567315214244 0.16460157790021815 0.4381656731522206 0.16460157790028537 0.2666462379003894 0.29152568623912994 -0.14297758420461418 -0.6207288420389947
152500000.0 -0.16197356534017454 -0.6114853659077689 0.28493215527846055 0.2830956963099096 0.4385207050307453 0.1641948347991188 0.43852070503080115 0.16419483479918118
 0.2849321552784606 0.28309569630990955 -0.16197356533995613 -0.6114853659076863 0.43852070503081 0.1641948347991924 0.4385207050308796 0.16419483479924815
 0.4385207050307451 0.1641948347991189 0.4385207050308099 0.16419483479919256 -0.14469729272612938 -0.6197068705195835 0.2676558826644095 0.29131720092171726
 0.4385207050308007 0.164194834799181 0.4385207050308792 0.1641948347992482 0.2676558826644093 0.2913172009217171 -0.14469729272595055 -0.6197068705195056
153000000.0 -0.1636335523546538 -0.6104244345420922 0.2858878938078148 0.2828451045334185 0.43887282927330773 0.1637896650045271 0.4388728292733636 0.16378966500458947
 0.28588789380781465 0.2828451045334183 -0.16363355235443539 -0.6104244345420097 0.43887282927337246 0.16378966500460068 0.4388728292734422 0.1637896650046564
 0.4388728292733074 0.16378966500452713 0.4388728292733727 0.16378966500460068 -0.14640595362034947 -0.6186852599476628 0.26866029507350464 0.29110592993898193
 0.43887282927336335 0.16378966500458925 0.43887282927344196 0.16378966500465633 0.2686602950735046 0.2911059299389818 -0.14640595362017053 -0.618685259947585
153500000.0 -0.16528257023163653 -0.6093643741783056 0.2868384185049205 0.2825922455875048 0.439222075863246 0.16338606429559166 0.43922207586330186 0.16338606429565392
 0.28683841850492037 0.28259224558750456 -0.16528257023141807 -0.6093643741782234 0.43922207586331113 0.16338606429566518 0.43922207586338075 0.16338606429572072
 0.43922207586324574 0.16338606429559166 0.43922207586331113 0.16338606429566518 -0.14810364787621833 -0.6176640506357877 0.26965949614949636 0.29089192204497966
 0.4392220758633017 0.16338606429565375 0.43922207586338063 0.1633860642957207 0.26965949614949636 0.2908919220449796 -0.1481036478760394 -0.6176640506357101
154000000.0 -0.16692070289135646 -0.608305220559696 0.2877837540434679 0.28233716381451435 0.43956847442383173 0.16298402837278325 0.4395684744238881 0.1629840283728454
 0.28778375404346784 0.28233716381451424 -0.16692070289113767 -0.6083052205596141 0.43956847442389707 0.1629840283728567 0.43956847442396724 0.1629840283729123
 0.4395684744238315 0.1629840283727832 0.43956847442389724 0.16298402837285672 -0.1497904559142211 -0.6166432821064288 0.2706535070663267 0.29067522536123974
 0.4395684744238878 0.1629840283728452 0.439568474423967 0.16298402837291215 0.27065350706632657 0.2906752253612395 -0.14979045591404175 -0.6166432821063514
154500000.0 -0.16854803361691395 -0.607247008663594 0.2887239251709877 0.2820799029422836 0.4399120542228504 0.1625835528608484 0.4399120542229069 0.16258355286091056
 0.28872392517098766 0.2820799029422835 -0.16854803361669501 -0.6072470086635121 0.43991205422291607 0.16258355286092188 0.4399120542229862 0.16258355286097728
 0.43991205422285007 0.16258355286084838 0.43991205422291607 0.16258355286092185 -0.15146645758845753 -0.6156229931047807 0.2716423491425256 0.29045588738346334
 0.4399120542229066 0.16258355286091028 0.4399120542229859 0.16258355286097717 0.27164234914252544 0.29045588738346306 -0.1514664575882782 -0.6156229931047036
155000000.0 -0.1701646450573027 -0.6061897727144495 0.28965895670257163 0.2818205060913479 0.4402528441772525 0.16218463331174499 0.44025284417730925 0.16218463331180724
 0.2896589567025717 0.28182050609134784 -0.17016464505708356 -0.6061897727143677 0.4402528441773183 0.1621846333118184 0.4402528441773888 0.16218463331187383
 0.4402528441772524 0.16218463331174512 0.44025284417731847 0.16218463331181843 -0.15313173218860177 -0.6146032216113029 0.2726260438338648 0.29023395498819426
 0.4402528441773091 0.16218463331180716 0.4402528441773885 0.1621846333118738 0.27262604383386463 0.2902339549881941 -0.15313173218842194 -0.6146032216112257
155500000.0 -0.17177061923048292 -0.6051335461967042 0.2905888735147633 0.2815590157820982 0.4405908728577466 0.16178726520749842 0.44059087285780335 0.16178726520756037
 0.29058887351476337 0.281559015782098 -0.17177061923026352 -0.6051335461966229 0.44059087285781284 0.16178726520757175 0.44059087285788334 0.16178726520762687
 0.44059087285774623 0.1617872652074982 0.44059087285781273 0.1617872652075716 -0.15478635844191813 -0.6135840048540726 0.27360461272619263 0.29000947443945907
 0.44059087285780324 0.16178726520756018 0.4405908728578831 0.16178726520762693 0.2736046127261927 0.2900094744394589 -0.1547863584417384 -0.6135840048539957
156000000.0 -0.1733660375265019 -0.6040783618674564 0.291513700539616 0.2812954739418879 0.44092616849332955 0.16139144396298025 0.4409261684933866 0.16139144396304225
 0.29151370053961584 0.2812954739418879 -0.17336603752628246 -0.604078361867375 0.4409261684933959 0.16139144396305372 0.44092616849346655 0.1613914439631089
 0.44092616849332933 0.16139144396298025 0.44092616849339594 0.16139144396305352 -0.15643041451533873 -0.6125653793209513 0.27457807752844676 0.28978249139537565
 0.4409261684933864 0.16139144396304225 0.4409261684934662 0.16139144396310884 0.2745780775284467 0.28978249139537565 -0.1564304145151588 -0.6125653793208744
156500000.0 -0.17495098071065934 -0.6030242517689219 0.2924334627589131 0.2810299219120877 0.4412587589757592 0.1609971649286143 0.44125875897581673 0.1609971649286764
 0.292433462758913 0.2810299219120876 -0.17495098071043963 -0.6030242517688408 0.44125875897582595 0.16099716492868768 0.44125875897589695 0.1609971649287429
 0.44125875897575917 0.16099716492861424 0.4412587589758261 0.16099716492868754 -0.15806397801759375 -0.6115473807715716 0.2755464600658416 0.28955305091473
 0.4412587589758164 0.1609971649286762 0.4412587589758966 0.16099716492874275 0.2755464600658414 0.2895530509147299 -0.1580639780174134 -0.6115473807714947
157000000.0 -0.1765255289267123 -0.6019712472407005 0.2933481851985487 0.2807624004550851 0.44158867186396766 0.16060442339300599 0.4415886718640253 0.16060442339306796
 0.29334818519854866 0.28076240045508494 -0.17652552892649237 -0.6019712472406197 0.44158867186403455 0.16060442339307918 0.4415886718641057 0.16060442339313427
 0.4415886718639674 0.16060442339300593 0.4415886718640347 0.1606044233930792 -0.15968712600139504 -0.6105300442491396 0.2765097822732254 0.2893211974635171
 0.44158867186402506 0.1606044233930677 0.44158867186410555 0.16060442339313427 0.27650978227322537 0.28932119746351687 -0.15968712600121449 -0.6105300442490632
157500000.0 -0.17808976170012267 -0.6009193789318418 0.294257892923064 0.2804929497612336 0.4419159343884152 0.16021321458550328 0.441915934388473 0.16021321458556526
 0.29425789292306387 0.28049294976123346 -0.17808976169990265 -0.6009193789317612 0.4419159343884823 0.16021321458557639 0.4419159343885536 0.1602132145856315
 0.44191593438841487 0.16021321458550317 0.44191593438848237 0.1602132145855763 -0.16129993496567238 -0.6095134040920634 0.27746806618860737 0.28908697492144786
 0.4419159343884726 0.16021321458556506 0.4419159343885533 0.16021321458563145 0.27746806618860725 0.28908697492144775 -0.1612999349654916 -0.6095134040919871
158000000.0 -0.17964375794133972 -0.5998686768127203 0.29516261103033525 0.28022160945574515 0.44224057345538786 0.15982353367868765 0.44224057345544576 0.1598235336787496
 0.29516261103033514 0.28022160945574504 -0.17964375794111975 -0.5998686768126398 0.44224057345545514 0.15982353367876084 0.44224057345552653 0.1598235336788157
 0.44224057345538764 0.1598235336786877 0.44224057345545525 0.1598235336787608 -0.16290248085785525 -0.6084974939454024 0.27842133394684443 0.2888504265884202
 0.44224057345544554 0.15982353367874944 0.44224057345552625 0.15982353367881585 0.27842133394684426 0.28885042658842014 -0.1629024808576744 -0.6084974939453262
158500000.0 -0.18118759594911896 -0.5988191701867185 0.2960623646464131 0.27994841860552805 0.4425626156512382 0.15943537579079636 0.4425626156512965 0.15943537579085826
 0.296062364646413 0.27994841860552794 -0.18118759594889874 -0.5988191701866381 0.4425626156513058 0.15943537579086936 0.44256261565137744 0.15943537579092426
 0.442562615651238 0.15943537579079642 0.44256261565130595 0.15943537579086944 -0.1644948390762048 -0.6074823467721466 0.2793696077734929 0.2886115951909493
 0.4425626156512961 0.159435375790858 0.4425626156513771 0.15943537579092418 0.2793696077734926 0.28861159519094903 -0.16449483907602397 -0.6074823467720708
159000000.0 -0.1827213534138732 -0.5977708877017249 0.2969571789205053 0.2796734157259698 0.442882087246569 0.15904873598807967 0.4428820872466275 0.15904873598814162
 0.29695717892050527 0.2796734157259697 -0.18272135341365286 -0.597770887701645 0.44288208724663686 0.1590487359881526 0.4428820872467085 0.1590487359882075
 0.44288208724656875 0.15904873598807967 0.4428820872466368 0.15904873598815253 -0.16607708447218741 -0.6064679948643249 0.2803129099788133 0.28837052288856246
 0.4428820872466271 0.15904873598814137 0.44288208724670824 0.15904873598820737 0.28031290997881314 0.2883705228885624 -0.16607708447200625 -0.606467994864249
159500000.0 -0.18424510742105682 -0.5967238573614442 0.29784707902010427 0.27939663878766285 0.44319901420036106 0.15866360928709403 0.4431990142004196 0.1586636092871557
 0.2978470790201041 0.2793966387876627 -0.18424510742083622 -0.5967238573613644 0.4431990142004292 0.158663609287167 0.443199014200501 0.15866360928722165
 0.44319901420036084 0.15866360928709394 0.44319901420042934 0.15866360928716688 -0.16764929135289142 -0.6054544698539417 0.28125126295193276 0.28812725128015304
 0.44319901420041935 0.15866360928715553 0.44319901420050084 0.15866360928722156 0.28125126295193253 0.28812725128015293 -0.16764929135271023 -0.6054544698538659
160000000.0 -0.18575893445457672 -0.595678106536527 0.2987320901262516 0.27911812522307317 0.44351342216404704 0.158279990656931 0.44351342216410583 0.15827999065699275
 0.2987320901262515 0.27911812522307305 -0.18575893445435598 -0.5956781065364471 0.4435134221641153 0.15827999065700396 0.4435134221641875 0.1582799906570586
 0.4435134221640469 0.1582799906569311 0.44351342216411554 0.1582799906570039 -0.16921153348348592 -0.6044418027237528 0.2821846891551548 0.28788182141029195
 0.44351342216410555 0.15827999065699266 0.44351342216418704 0.15827999065705864 0.2821846891551546 0.28788182141029184 -0.16921153348330456 -0.6044418027236772
160500000.0 -0.18726291040023282 -0.5946336619755201 0.29961223742894144 0.27883791193315416 0.44382533648552996 0.15789787502138825 0.4438253364855889 0.15789787502145006
 0.29961223742894133 0.278837911933154 -0.18726291040001197 -0.5946336619754408 0.4438253364855985 0.15789787502146108 0.44382533648567074 0.15789787502151567
 0.4438253364855297 0.15789787502138822 0.4438253364855985 0.15789787502146102 -0.17076388408971643 -0.6034300238178743 0.2831132111184186 0.28763427377550105
 0.4438253364855887 0.15789787502144983 0.4438253364856704 0.15789787502151575 0.2831132111184186 0.2876342737755009 -0.17076388408953472 -0.6034300238177989
161000000.0 -0.18875711054918348 -0.5935905498156411 0.3004875461226551 0.27855603529389905 0.4441347822131481 0.15751725726107713 0.44413478221320735 0.15751725726113872
 0.30048754612265494 0.27855603529389894 -0.18875711054896244 -0.5935905498155617 0.44413478221321684 0.15751725726114987 0.4441347822132894 0.15751725726120447
 0.444134782213148 0.1575172572610771 0.44413478221321706 0.15751725726114985 -0.1723064158604376 -0.6024191628522296 0.28403685143390306 0.28738464833048055
 0.444134782213207 0.15751725726113855 0.4441347822132891 0.15751725726120433 0.2840368514339028 0.28738464833048033 -0.17230641586025588 -0.6024191628521544
161500000.0 -0.19024160960143346 -0.5925487955933756 0.30135804140202643 0.278272531162839 0.4444417840995874 0.15713813221547554 0.44444178409964674 0.1571381322155372
 0.30135804140202627 0.2782725311628389 -0.19024160960121236 -0.5925487955932964 0.4444417840996564 0.15713813221554826 0.44444178409972895 0.15713813221560277
 0.44444178409958723 0.15713813221547548 0.44444178409965646 0.15713813221554815 -0.1738392009501827 -0.6014092489248399 0.2849556327507694 0.287132984494296
 0.44444178409964646 0.15713813221553694 0.4444417840997286 0.15713813221560258 0.28495563275076924 0.28713298449429586 -0.1738392009500009 -0.6014092489247649
162000000.0 -0.19171648166934732 -0.5915084242549083 0.30222374845763483 0.2779874348854799 0.44474636660573974 0.15676049468492256 0.4447463666057992 0.15676049468498401
 0.3022237484576348 0.2779874348854796 -0.19171648166912583 -0.5915084242548297 0.444746366605809 0.1567604946849951 0.4447463666058816 0.1567604946850494
 0.44474636660573946 0.15676049468492237 0.4447463666058091 0.15676049468499512 -0.1753623109817642 -0.6004003105259554 0.28586957777004557 0.2868793211565196
 0.44474636660579897 0.15676049468498388 0.44474636660588146 0.1567604946850496 0.28586957777004546 0.2868793211565196 -0.1753623109815822 -0.6004003105258804
162500000.0 -0.1931818002811784 -0.590469460166381 0.3030846924719219 0.2777007813016825 0.4450485539045116 0.1563843394325583 0.4450485539045714 0.15638433943261973
 0.3030846924719217 0.27770078130168235 -0.1931818002809569 -0.5904694601663021 0.445048553904581 0.1563843394326309 0.4450485539046538 0.15638433943268523
 0.4450485539045114 0.1563843394325583 0.44504855390458115 0.15638433943263086 -0.17687581704890765 -0.5993923755480335 0.2867787092396447 0.28662369668332793
 0.445048553904571 0.15638433943261967 0.4450485539046536 0.15638433943268523 0.28677870923964455 0.2866236966833279 -0.1768758170487254 -0.5993923755479585
163000000.0 -0.1946376383846221 -0.5894319271239848 0.30394089861522966 0.27741260475198326 0.4453483698845792 0.15600966118621093 0.4453483698846392 0.15600966118627238
 0.3039408986152296 0.2774126047519832 -0.19463763838440037 -0.5894319271239061 0.4453483698846491 0.15600966118628343 0.4453483698847221 0.15600966118633777
 0.4453483698845791 0.15600966118621087 0.4453483698846492 0.1560096611862834 -0.17837978971891413 -0.5983854712955625 0.2876830499495152 0.2863661489235537
 0.445348369884639 0.15600966118627216 0.4453483698847218 0.1560096611863377 0.287683049949515 0.2863661489235536 -0.17837978971873178 -0.5983854712954878
163500000.0 -0.19608406835038233 -0.5883958483638925 0.30479239204195785 0.2771229390838552 0.44564583815409525 0.15563645464023007 0.4456458381541554 0.15563645464029136
 0.30479239204195774 0.27712293908385516 -0.19608406835016068 -0.588395848363814 0.44564583815416503 0.15563645464030254 0.4456458381542382 0.15563645464035666
 0.4456458381540949 0.15563645464022993 0.44564583815416503 0.15563645464030237 -0.1798742990353525 -0.5973796244947374 0.2885826227269215 0.28610671521469283
 0.445645838154155 0.15563645464029133 0.44564583815423797 0.15563645464035658 0.2885826227269213 0.2861067152146927 -0.1798742990351698 -0.5973796244946628
164000000.0 -0.19752116197575625 -0.587361246572025 0.3056391978868368 0.27683181765791043 0.4459409820443424 0.15526471445726958 0.4459409820444026 0.1552647144573309
 0.30563919788683663 0.2768318176579102 -0.1975211619755342 -0.5873612465719469 0.4459409820444125 0.155264714457342 0.44594098204448573 0.15526471445739606
 0.4459409820443421 0.15526471445726953 0.4459409820444126 0.15526471445734183 -0.18135941452077778 -0.596374861302985 0.2894774504318522 0.28584543238886306
 0.4459409820444023 0.1552647144573308 0.44594098204448557 0.1552647144573961 0.28947745043185213 0.28584543238886306 -0.18135941452059515 -0.5963748613029104
164500000.0 -0.19894899048823092 -0.5863281438936616 0.30648134126131327 0.2765392733540436 0.44623382461334127 0.15489443527002222 0.44623382461340183 0.15489443527008362
 0.3064813412613131 0.27653927335404344 -0.19894899048800888 -0.5863281438935837 0.4462338246134116 0.15489443527009458 0.4462338246134851 0.15489443527014876
 0.4462338246133409 0.15489443527002222 0.44623382461341166 0.15489443527009455 -0.18283520517947596 -0.5953712073183446 0.29036755595255154 0.28558233677871936
 0.44623382461340166 0.15489443527008345 0.44623382461348493 0.15489443527014873 0.2903675559525515 0.2855823367787192 -0.18283520517929283 -0.5953712073182704
165000000.0 -0.20036762454909712 -0.5852965619428935 0.30731884725004743 0.2762453385775145 0.44652438864940697 0.15452561168290366 0.44652438864946775 0.15452561168296486
 0.30731884725004743 0.27624533857751443 -0.2003676245488747 -0.5852965619428154 0.4465243886494775 0.1545256116829759 0.44652438864955113 0.15452561168302992
 0.4465243886494069 0.1545256116829037 0.4465243886494775 0.1545256116829759 -0.18430173950022874 -0.5943686875887039 0.2912529622011727 0.2853174642233179
 0.4465243886494675 0.1545256116829648 0.44652438864955085 0.1545256116830299 0.2912529622011726 0.2853174642233177 -0.18430173950004566 -0.5943686875886298
165500000.0 -0.20177713425706956 -0.5842665218119225 0.30815174090751807 0.27595004526497274 0.4468126966746577 0.1541582382736902 0.4468126966747187 0.15415823827375147
 0.30815174090751796 0.2759500452649726 -0.20177713425684723 -0.584266521811845 0.44681269667472856 0.15415823827376235 0.44681269667480233 0.15415823827381636
 0.4468126966746574 0.1541582382736902 0.4468126966747287 0.15415823827376243 -0.18575908545910796 -0.5933673266208924 0.29213369210955004 0.2850508500739355
 0.4468126966747183 0.1541582382737513 0.44681269667480217 0.15415823827381636 0.2921336921095499 0.2850508500739354 -0.18575908545892472 -0.5933673266208185
166000000.0 -0.20317758915192202 -0.5832380440802113 0.30898004725473166 0.27565342489042094 0.44709877094847666 0.15379230959511112 0.4470987709485378 0.15379230959517218
 0.3089800472547316 0.275653424890421 -0.20317758915169934 -0.5832380440801336 0.4470987709485478 0.15379230959518347 0.44709877094862166 0.15379230959523715
 0.4470987709484765 0.15379230959511112 0.44709877094854794 0.1537923095951833 -0.18720731052228384 -0.5923671483896361 0.29300976862508743 0.2847825291998389
 0.4470987709485375 0.153792309595172 0.4470987709486213 0.15379230959523704 0.29300976862508726 0.2847825291998388 -0.18720731052210074 -0.5923671483895625
166500000.0 -0.2045690582181281 -0.5822111488234785 0.30980379127603763 0.27535550847112117 0.44738263347092666 0.15342782017639575 0.44738263347098783 0.15342782017645687
 0.30980379127603763 0.27535550847112106 -0.2045690582179053 -0.5822111488234012 0.447382633470998 0.1534278201764678 0.44738263347107204 0.15342782017652162
 0.4473826334709264 0.15342782017639572 0.447382633470998 0.15342782017646775 -0.1886464816488579 -0.5913681763463725 0.29388121470676115 0.28451253599400805
 0.4473826334709876 0.15342782017645662 0.4473826334710717 0.15342782017652157 0.29388121470676104 0.284512535994008 -0.18864648164867448 -0.5913681763462989
167000000.0 -0.20595160988851216 -0.5811858556225544 0.31062299791604026 0.2750563265734377 0.4476643059861171 0.1530647645247762 0.4476643059861786 0.15306476452483728
 0.3106229979160401 0.27505632657343765 -0.20595160988828912 -0.5811858556224772 0.44766430598618856 0.15306476452484838 0.44766430598626283 0.15306476452490198
 0.4476643059861171 0.15306476452477633 0.4476643059861888 0.1530647645248483 -0.190076665293711 -0.5903704334279313 0.2947480533212328 0.2842409043788077
 0.4476643059861783 0.15306476452483714 0.4476643059862626 0.1530647645249019 0.29474805332123255 0.28424090437880756 -0.19007666529352757 -0.5903704334278579
167500000.0 -0.20732531204790527 -0.5801621835720849 0.31143769207661187 0.2747559093186247 0.44794380998552763 0.1527031371269493 0.44794380998558925 0.15270313712701034
 0.31143769207661176 0.27475590931862454 -0.20732531204768223 -0.580162183572008 0.4479438099855993 0.15270313712702127 0.44794380998567374 0.15270313712707492
 0.44794380998552746 0.1527031371269493 0.4479438099855995 0.15270313712702124 -0.19149792741037203 -0.5893739420650796 0.29561030743907213 0.28396766781161237
 0.447943809985589 0.15270313712701022 0.4479438099856735 0.15270313712707492 0.295610307439072 0.2839676678116123 -0.1914979274101882 -0.5893739420650064
168000000.0 -0.20869023203680795 -0.579140151289099 0.31224789861400165 0.27445428638855024 0.44822116671128387 0.15234293245049435 0.4482211667113458 0.1523429324505553
 0.3122478986140015 0.2744542863885501 -0.20869023203658474 -0.5791401512890223 0.4482211667113558 0.15234293245056624 0.4482211667114304 0.15234293245061975
 0.4482211667112837 0.15234293245049446 0.44822116671135614 0.1523429324505664 -0.192910333453899 -0.5883787241909365 0.29646800003108625 0.2836928592903809
 0.4482211667113456 0.15234293245055522 0.4482211667114302 0.15234293245061986 0.296468000031086 0.2836928592903807 -0.19291033345371505 -0.5883787241908635
168500000.0 -0.21004643665505568 -0.5781197769214309 0.31305364233603583 0.27415148703136494 0.44849639715939055 0.15198414494525414 0.4484963971594526 0.15198414494531498
 0.3130536423360356 0.2741514870313647 -0.21004643665483239 -0.5781197769213543 0.44849639715946266 0.15198414494532592 0.4484963971595373 0.15198414494537937
 0.4484963971593903 0.15198414494525414 0.4484963971594629 0.151984144945326 -0.19431394838377777 -0.5873848012492555 0.29732115406475135 0.28341651135918244
 0.4484963971594523 0.15198414494531495 0.44849639715953715 0.15198414494537943 0.29732115406475124 0.2834165113591824 -0.1943139483835937 -0.5873848012491825
169000000.0 -0.2113939921654893 -0.5771010781560083 0.313854947999412 0.27384754006710754 0.44876952208291904 0.15162676904467265 0.4487695220829812 0.1516267690447335
 0.313854947999412 0.27384754006710743 -0.211393992165266 -0.5771010781559319 0.4487695220829913 0.15162676904474442 0.4487695220830662 0.1516267690447978
 0.44876952208291876 0.1516267690446726 0.4487695220829913 0.1516267690447443 -0.19570883666683325 -0.5863921942025798 0.2981697925007495 0.2831386561136719
 0.44876952208298104 0.1516267690447333 0.4487695220830659 0.15162676904479766 0.2981697925007494 0.2831386561136718 -0.1957088366666491 -0.5863921942025071
169500000.0 -0.21273296429762642 -0.5760840722270025 0.3146518403070816 0.2735424738932542 0.4490405619951525 0.15127079916709738 0.44904056199521497 0.1512707991671583
 0.31465184030708143 0.2735424738932541 -0.2127329642974028 -0.5760840722269264 0.4490405619952251 0.1512707991671691 0.4490405619953002 0.1512707991672225
 0.4490405619951522 0.15127079916709735 0.44904056199522524 0.151270799167169 -0.19709506228015253 -0.5854009235402721 0.29901393828960093 0.2828593252065166
 0.44904056199521475 0.15127079916715808 0.44904056199529996 0.15127079916722244 0.29901393828960077 0.2828593252065164 -0.19709506227996793 -0.5854009235401993
170000000.0 -0.21406341825133463 -0.5750687759238449 0.31544434390571835 0.2732363164902069 0.449309537172688 0.15091622971704313 0.44930953717275063 0.15091622971710386
 0.3154443439057183 0.2732363164902068 -0.21406341825111083 -0.5750687759237689 0.4493095371727609 0.15091622971711477 0.449309537172836 0.15091622971716803
 0.4493095371726877 0.1509162297170432 0.4493095371727609 0.1509162297171148 -0.19847268871402057 -0.5844110092864168 0.2998536143683975 0.28257854985277203
 0.4493095371727503 0.15091622971710378 0.4493095371728358 0.1509162297171681 0.29985361436839736 0.28257854985277187 -0.19847268871383597 -0.5844110092863443
170500000.0 -0.21538541870050476 -0.5740552055991123 0.31623248338327375 0.2729290954267246 0.4495764676584951 0.15056305508641912 0.4495764676585579 0.15056305508647985
 0.3162324833832737 0.27292909542672444 -0.21538541870028077 -0.5740552055990366 0.4495764676585683 0.15056305508649076 0.4495764676586435 0.15056305508654394
 0.4495764676584949 0.15056305508641907 0.4495764676585683 0.15056305508649065 -0.19984177897486607 -0.5834224710076035 0.30068884365762844 0.28229636083520854
 0.44957646765855763 0.1505630550864796 0.44957646765864334 0.15056305508654388 0.3006888436576283 0.2822963608352084 -0.19984177897468125 -0.5834224710075311
171000000.0 -0.21669902979672345 -0.5730433771762836 0.31701628326661424 0.2726208378652938 0.449841373264934 0.1502112696557207 0.44984137326499707 0.15021126965578147
 0.3170162832666141 0.27262083786529373 -0.21669902979649958 -0.5730433771762078 0.44984137326500717 0.1502112696557923 0.4498413732650828 0.15021126965584541
 0.4498413732649339 0.15021126965572087 0.44984137326500734 0.1502112696557923 -0.20120239558821607 -0.5824353278205843 0.30151964905810014 0.28201278850958783
 0.44984137326499685 0.15021126965578135 0.4498413732650825 0.15021126965584533 0.30151964905809997 0.2820127885095876 -0.2012023955880311 -0.5824353278205122
171500000.0 -0.21800431517294455 -0.5720333061573653 0.3177957680192392 0.2723115705674435 0.45010427357673183 0.14986086779518792 0.45010427357679506 0.14986086779524854
 0.3177957680192391 0.27231157056744343 -0.21800431517272065 -0.5720333061572898 0.4501042735768052 0.14986086779525937 0.45010427357688093 0.1498608677953124
 0.4501042735767318 0.14986086779518798 0.4501042735768054 0.1498608677952593 -0.2025546006016596 -0.5814495983998177 0.3023460534479475 0.2817278628098889
 0.4501042735767947 0.1498608677952483 0.45010427357688065 0.1498608677953122 0.30234605344794735 0.2817278628098887 -0.20255460060147462 -0.5814495983997457
172000000.0 -0.2193013379471578 -0.571025007630397 0.31857096203907925 0.2720013198989987 0.450365187953918 0.1495118438659272 0.45036518795398156 0.14951184386598781
 0.31857096203907914 0.2720013198989986 -0.21930133794693335 -0.5710250076303216 0.4503651879539918 0.14951184386599858 0.45036518795406766 0.14951184386605168
 0.4503651879539179 0.14951184386592722 0.45036518795399183 0.14951184386599864 -0.20389845558781874 -0.5804653009848897 0.3031680796797336 0.28144161325348455
 0.4503651879539812 0.14951184386598765 0.4503651879540674 0.14951184386605157 0.3031680796797334 0.2814416132534844 -0.2038984555876333 -0.5804653009848179
172500000.0 -0.2205901607260522 -0.5700184962768277 0.3193418896563694 0.2716901118352783 0.4506241355347201 0.14916419222100388 0.45062413553478364 0.1491641922210644
 0.3193418896563692 0.27169011183527814 -0.2205901607258278 -0.5700184962767526 0.45062413553479397 0.14916419222107516 0.45062413553486985 0.14916419222112812
 0.45062413553471997 0.14916419222100388 0.4506241355347942 0.1491641922210751 -0.2052340216473248 -0.579482453387823 0.30398575057763544 0.2811540689462666
 0.45062413553478337 0.14916419222106425 0.4506241355348697 0.149164192221128 0.30398575057763527 0.28115406894626654 -0.20523402164713941 -0.5794824533877513
173000000.0 -0.2218708456086803 -0.5690137863787741 0.3201085751315997 0.27137797196623453 0.45088113523841866 0.14881790720649982 0.4508811352384825 0.14881790720656035
 0.3201085751315996 0.2713779719662344 -0.2218708456084556 -0.569013786378699 0.45088113523849294 0.1488179072065711 0.450881135238569 0.14881790720662394
 0.4508811352384186 0.14881790720649984 0.450881135238493 0.14881790720657104 -0.206561359411803 -0.5785010730002695 0.30479908893471575 0.2808652585877231
 0.4508811352384821 0.1488179072065601 0.45088113523856854 0.14881790720662383 0.3047990889347156 0.2808652585877229 -0.20656135941161752 -0.5785010730001979
173500000.0 -0.22314345419011208 -0.5680108918261574 0.32087104265353766 0.27106492550153555 0.4511362057681655 0.1484729831625421 0.4511362057682293 0.14847298316260246
 0.32087104265353766 0.2710649255015354 -0.22314345418988715 -0.5680108918260824 0.45113620576824 0.1484729831626133 0.451136205768316 0.1484729831626659
 0.45113620576816527 0.14847298316254204 0.45113620576823993 0.1484729831626132 -0.20788052904685908 -0.5775211768005921 0.3056081175102781 0.28057521047596334
 0.451136205768229 0.14847298316260216 0.4511362057683157 0.14847298316266588 0.305608117510278 0.2805752104759631 -0.2078805290466735 -0.5775211768005208
174000000.0 -0.22440804756508617 -0.5670098261237227 0.321629316337323 0.2707509972755894 0.45138936561375975 0.1481294144242989 0.4513893656138239 0.14812941442435934
 0.32162931633732295 0.2707509972755893 -0.2244080475648614 -0.5670098261236481 0.45138936561383414 0.14812941442437008 0.4513893656139106 0.14812941442442276
 0.45138936561375953 0.1481294144242989 0.4513893656138343 0.14812941442437 -0.20919159025507109 -0.5765427813608347 0.30641285902730103 0.2802839525126942
 0.45138936561382353 0.14812941442435906 0.4513893656139103 0.14812941442442262 0.3064128590273009 0.280283952512694 -0.20919159025488515 -0.5765427813607634
174500000.0 -0.22566468633165443 -0.5660106023979434 0.3223834202226313 0.27043621175251287 0.4516406330543894 0.1477871953229485 0.4516406330544536 0.1477871953230088
 0.3223834202226312 0.27043621175251276 -0.2256646863314292 -0.5660106023978689 0.4516406330544643 0.1477871953230196 0.4516406330545406 0.14778719532307216
 0.45164063305438923 0.14778719532294843 0.4516406330544642 0.14778719532301948 -0.2104946022789833 -0.5755659028535839 0.3072133361699534 0.27999151220814616
 0.45164063305445334 0.14778719532300857 0.45164063305454033 0.14778719532307213 0.30721333616995333 0.27999151220814605 -0.21049460227879727 -0.5755659028535126
175000000.0 -0.22691343059481817 -0.5650132334038092 0.32313337827190697 0.2701205930310433 0.4518900261613333 0.1474463201866169 0.4518900261613976 0.1474463201866772
 0.3231333782719069 0.27012059303104324 -0.22691343059459296 -0.565013233403735 0.4518900261614083 0.14744632018668785 0.45189002616148477 0.14744632018674048
 0.45189002616133306 0.1474463201866169 0.4518900261614083 0.1474463201866879 -0.21178962390410486 -0.5745905570587225 0.30800957158118664 0.2796979166859496
 0.4518900261613975 0.14744632018667703 0.4518900261614846 0.1474463201867405 0.3080095715811865 0.2796979166859495 -0.2117896239039187 -0.5745905570586514
175500000.0 -0.22815433997015866 -0.5640177315315031 0.32387921436866135 0.26980416484939396 0.4521375628006261 0.1471067833412896 0.4521375628006907 0.14710678334134974
 0.32387921436866124 0.2698041648493939 -0.2281543399699334 -0.5640177315314289 0.45213756280070133 0.14710678334136057 0.45213756280077794 0.14710678334141294
 0.45213756280062584 0.14710678334128957 0.45213756280070133 0.14710678334136046 -0.2130767134619064 -0.5736167593700776 0.3088015878604022 0.27940319268796154
 0.4521375628006904 0.14710678334134955 0.45213756280077777 0.14710678334141286 0.308801587860402 0.2794031926879614 -0.2130767134617203 -0.5736167593700068
176000000.0 -0.22938747358745679 -0.5630241088129686 0.32462095231583615 0.2694869505900535 0.45238326063568773 0.1467685791116938 0.4523832606357524 0.14676857911175392
 0.3246209523158361 0.26948695059005334 -0.22938747358723144 -0.5630241088128947 0.4523832606357631 0.14676857911176455 0.45238326063583983 0.14676857911181687
 0.4523832606356875 0.1467685791116938 0.45238326063576306 0.14676857911176458 -0.21435592883282026 -0.5726445248019646 0.3095894075611926 0.2791073665790424
 0.4523832606357521 0.1467685791117538 0.4523832606358395 0.14676857911181704 0.30958940756119246 0.27910736657904234 -0.21435592883263394 -0.5726445248018937
176500000.0 -0.2306128900943065 -0.5620323769283667 0.32535861583422987 0.26916897328452993 0.45262713712991537 0.14643170182215548 0.4526271371299802 0.1464317018222155
 0.32535861583422976 0.2691689732845299 -0.2306128900940808 -0.5620323769282928 0.4526271371299909 0.14643170182222628 0.4526271371300678 0.14643170182227858
 0.4526271371299151 0.14643170182215545 0.452627137129991 0.14643170182222623 -0.21562732744923957 -0.5716738679956271 0.3103730531891562 0.2788104643517836
 0.45262713712998004 0.14643170182221538 0.45262713713006764 0.1464317018222785 0.3103730531891561 0.27881046435178347 -0.21562732744905308 -0.5716738679955566
177000000.0 -0.23183064765971492 -0.5610425472124256 0.3260922285609857 0.26885025561804105 0.4528692095492417 0.14609614579743035 0.45286920954930676 0.1460961457974904
 0.3260922285609854 0.26885025561804093 -0.23183064765948944 -0.5610425472123518 0.45286920954931725 0.14609614579750121 0.45286920954939436 0.14609614579755345
 0.4528692095492413 0.1460961457974304 0.4528692095493174 0.1460961457975011 -0.21689096629851676 -0.5707048032255778 0.31115254719978036 0.27851251163118623
 0.4528692095493064 0.1460961457974903 0.4528692095493942 0.14609614579755342 0.31115254719978014 0.2785125116311861 -0.2168909662983301 -0.5707048032255073
177500000.0 -0.2330408039776975 -0.5600546306606865 0.32682181404813926 0.26853081993414696 0.45310949496465597 0.14576190536350903 0.4531094949647213 0.145761905363569
 0.32682181404813904 0.26853081993414685 -0.23304080397747198 -0.5600546306606131 0.4531094949647318 0.14576190536357955 0.45310949496480907 0.1457619053636318
 0.45310949496465575 0.14576190536350894 0.45310949496473196 0.1457619053635794 -0.2181469019259605 -0.5697373444058372 0.3119279119963952 0.27821353367929047
 0.45310949496472097 0.1457619053635688 0.45310949496480873 0.14576190536363168 0.31192791199639497 0.27821353367929036 -0.21814690192577363 -0.5697373444057667
178000000.0 -0.23424341627085613 -0.559068637935645 0.32754739576122444 0.26821068823933153 0.4533480102546924 0.14542897484839698 0.4533480102547579 0.14542897484845677
 0.32754739576122444 0.2682106882393314 -0.2342434162706305 -0.5590686379355716 0.45334801025476856 0.14542897484846745 0.4533480102548459 0.14542897484851947
 0.4533480102546921 0.14542897484839695 0.4533480102547685 0.14542897484846734 -0.2193951904378318 -0.568771505096076 0.3126991699281932 0.2779135553997556
 0.4533480102547575 0.14542897484845663 0.45334801025484545 0.1454289748485194 0.31269916992819297 0.2779135553997555 -0.21939519043764497 -0.5687715050960058
178500000.0 -0.23543854129395128 -0.5580845793727888 0.3282689970779379 0.2678898822075275 0.4535847721078831 0.14509734858287185 0.45358477210794873 0.14509734858293172
 0.3282689970779377 0.2678898822075274 -0.23543854129372538 -0.5580845793727156 0.45358477210795944 0.14509734858294238 0.4535847721080369 0.14509734858299442
 0.4535847721078829 0.1450973485828719 0.4535847721079594 0.1450973485829424 -0.22063588750433638 -0.56780729850766 0.31346634328831585 0.2776126013423919
 0.45358477210794845 0.14509734858293166 0.45358477210803666 0.14509734858299445 0.3134663432883157 0.2776126013423918 -0.2206358875041492 -0.5678072985075898
179000000.0 -0.23662623533745972 -0.5571024649865379 0.32898664128685595 0.2675684231845888 0.4538197970251781 0.14476702090121674 0.45381979702524383 0.14476702090127644
 0.32898664128685573 0.26756842318458873 -0.2366262353372337 -0.5571024649864648 0.4538197970252546 0.14476702090128718 0.45381979702533204 0.14476702090133903
 0.45381979702517794 0.14476702090121674 0.4538197970252547 0.14476702090128704 -0.22186904836261429 -0.5668447375095998 0.3142294543120036 0.27731069570764383
 0.45381979702524344 0.14476702090127638 0.45381979702533193 0.14476702090133897 0.3142294543120034 0.2773106957076438 -0.2218690483624273 -0.5668447375095298
179500000.0 -0.23780655423112013 -0.5561223044760842 0.3297003515862088 0.2672463321927106 0.4540531013223315 0.14443798614192996 0.4540531013223974 0.14443798614198952
 0.3297003515862087 0.2672463321927105 -0.2378065542308939 -0.5561223044760114 0.4540531013224083 0.14443798614200026 0.45405310132248594 0.14443798614205203
 0.4540531013223314 0.14443798614192982 0.45405310132240845 0.14443798614200015 -0.2230947278197259 -0.5658838346344063 0.3149885251748075 0.27700786235102554
 0.4540531013223972 0.14443798614198947 0.4540531013224858 0.14443798614205205 0.31498852517480735 0.2770078623510255 -0.22309472781953868 -0.5658838346343363
180000000.0 -0.23897955334746665 -0.5551441072311337 0.3304101510827055 0.2669236299347946 0.45428470113225644 0.1441102386484137 0.4542847011323225 0.14411023864847336
 0.33041015108270544 0.2669236299347946 -0.23897955334724044 -0.555144107231061 0.4542847011323333 0.14411023864848405 0.4542847011324111 0.1441102386485358
 0.4542847011322561 0.14411023864841374 0.45428470113233327 0.14411023864848393 -0.2243129802556327 -0.5649246020838534 0.31574357799086444 0.2767041247875075
 0.4542847011323222 0.14411023864847325 0.4542847011324109 0.14411023864853573 0.31574357799086433 0.2767041247875074 -0.22431298025544533 -0.5649246020837838
180500000.0 -0.2401452876053495 -0.5541678823375535 0.33111606279041084 0.26660033679876355 0.4545146124073448 0.14378377276964044 0.4545146124074109 0.1437837727696998
 0.3311160627904108 0.2666003367987633 -0.24014528760512285 -0.5541678823374812 0.454514612407422 0.14378377276971044 0.4545146124074999 0.14378377276976206
 0.45451461240734464 0.14378377276964027 0.4545146124074221 0.1437837727697105 -0.22552385962617522 -0.5639670517346521 0.3164946348112296 0.2763995061958551
 0.4545146124074107 0.14378377276969978 0.4545146124074998 0.1437837727697622 0.3164946348112296 0.2763995061958551 -0.22552385962598795 -0.5639670517345827
181000000.0 -0.24130381147343968 -0.5531936385829254 0.3318181096296723 0.2662764728618225 0.4547428509217592 0.1434585828607976 0.4547428509218255 0.14345858286085705
 0.3318181096296721 0.2662764728618223 -0.24130381147321328 -0.5531936385828531 0.4547428509218364 0.14345858286086763 0.4547428509219145 0.14345858286091923
 0.4547428509217588 0.14345858286079763 0.4547428509218363 0.14345858286086757 -0.2267274194660435 -0.5630111951440314 0.31724171762226877 0.27609402942292177
 0.4547428509218253 0.14345858286085697 0.4547428509219144 0.14345858286091923 0.31724171762226877 0.27609402942292177 -0.2267274194658559 -0.5630111951439623
181500000.0 -0.24245517897372348 -0.5522213844620044 0.33251631442609525 0.26595205789467063 0.4549694322736893 0.14313466328391417 0.45496943227375586 0.14313466328397356
 0.3325163144260951 0.26595205789467047 -0.24245517897349705 -0.5522213844619324 0.4549694322737668 0.14313466328398414 0.45496943227384495 0.1431346632840357
 0.45496943227368913 0.14313466328391414 0.4549694322737668 0.1431346632839842 -0.22792371289174165 -0.562057043555233 0.3179848483441062 0.2757877169878923
 0.4549694322737556 0.14313466328397342 0.4549694322738449 0.14313466328403565 0.317984848344106 0.2757877169878922 -0.22792371289155391 -0.562057043555164
182000000.0 -0.2435994436849787 -0.5512511281820898 0.3332106999095668 0.26562711136565903 0.455194371887581 0.14281200840846384 0.4551943718876477 0.14281200840852323
 0.3332106999095668 0.2656271113656589 -0.24359944368475217 -0.5512511281820179 0.45519437188765866 0.14281200840853375 0.4551943718877369 0.14281200840858516
 0.4551943718875807 0.14281200840846386 0.45519437188765866 0.14281200840853372 -0.22911279260454828 -0.5611046079029184 0.31872404882912925 0.27548059108648076
 0.45519437188764744 0.14281200840852298 0.4551943718877368 0.14281200840858518 0.3187240488291292 0.2754805910864806 -0.22911279260436052 -0.5611046079028494
182500000.0 -0.24473665874623887 -0.5502828776683029 0.3339012887133247 0.26530165244489967 0.4554176850163318 0.1424906126119508 0.4554176850163987 0.14249061261201018
 0.3339012887133247 0.2653016524448996 -0.24473665874601191 -0.550282877668231 0.4554176850164097 0.14249061261202076 0.45541768501648816 0.1424906126120721
 0.4554176850163316 0.1424906126119509 0.45541768501640967 0.1424906126120207 -0.23029471089346784 -0.5601538988184905 0.31945934086054656 0.27517267359508063
 0.45541768501639834 0.14249061261201015 0.4554176850164879 0.1424906126120723 0.3194593408605464 0.27517267359508063 -0.23029471089327977 -0.5601538988184215
183000000.0 -0.24586687686023986 -0.5493166405687784 0.3345881033730712 0.2649757000083245 0.45563938674345905 0.14217047028047722 0.455639386743526 0.1421704702805366
 0.3345881033730711 0.2649757000083244 -0.2458668768600131 -0.5493166405687067 0.455639386743537 0.14217047028054702 0.4556393867436156 0.14217047028059837
 0.45563938674345866 0.14217047028047725 0.45563938674353704 0.14217047028054697 -0.231469519638175 -0.5592049266353315 0.320190746150999 0.2748639860748707
 0.4556393867435257 0.1421704702805364 0.4556393867436153 0.14217047028059834 0.32019074615099896 0.27486398607487067 -0.23146951963798695 -0.5592049266352627
183500000.0 -0.24699015029685448 -0.5483524242597693 0.3352711663261321 0.26464927264169275 0.4558594919852357 0.1418515758092897 0.45585949198530284 0.14185157580934887
 0.33527116632613196 0.26464927264169263 -0.24699015029662755 -0.5483524242596978 0.4558594919853139 0.1418515758093593 0.4558594919853925 0.1418515758094106
 0.45585949198523557 0.14185157580928967 0.455859491985314 0.14185157580935936 -0.23263727031195233 -0.5582577013939551 0.3209182863412227 0.2745545497758718
 0.45585949198530257 0.1418515758093488 0.45585949198539233 0.1418515758094106 0.32091828634122255 0.2745545497758718 -0.23263727031176412 -0.5582577013938864
184000000.0 -0.24810653089650722 -0.5473902358506648 0.3359504999106567 0.26432238864455043 0.4560780154927993 0.14153392360330957 0.45607801549286686 0.14153392360336875
 0.33595049991065673 0.2643223886445503 -0.2481065308962801 -0.5473902358505934 0.4560780154928778 0.14153392360337905 0.4560780154929567 0.14153392360343028
 0.4560780154927993 0.1415339236033096 0.4560780154928779 0.14153392360337913 -0.23379801398461875 -0.5573122328470809 0.32164198299876123 0.27424438564095965
 0.4560780154928664 0.14153392360336858 0.45607801549295635 0.14153392360343034 0.321641982998761 0.27424438564095954 -0.23379801398443031 -0.5573122328470123
184500000.0 -0.24921607007357527 -0.5464300821889259 0.33662612636486144 0.26399506603414075 0.4562949718542309 0.1412175080776458 0.4562949718542984 0.1412175080777049
 0.3366261263648613 0.26399506603414064 -0.24921607007334776 -0.5464300821888546 0.4562949718543096 0.14121750807771544 0.4562949718543885 0.14121750807776653
 0.4562949718542307 0.1412175080776458 0.45629497185430956 0.1412175080777154 -0.23495180132545013 -0.5563685304646239 0.322361857616729 0.273933514309832
 0.4562949718542981 0.14121750807770492 0.45629497185438833 0.14121750807776662 0.3223618576167288 0.2739335143098319 -0.2349518013252615 -0.5563685304645554
185000000.0 -0.25031881881977275 -0.5454719698649368 0.3372980678263107 0.2636673225492651 0.4565103754966048 0.14090232365808994 0.45651037549667256 0.1409023236581489
 0.3372980678263106 0.26366732254926506 -0.25031881881954515 -0.5454719698648656 0.4565103754966836 0.14090232365815944 0.4565103754967627 0.14090232365821057
 0.45651037549660456 0.14090232365808994 0.45651037549668366 0.14090232365815947 -0.23609868260608954 -0.5554266034386086 0.32307793161262033 0.2736219561229302
 0.4565103754966722 0.14090232365814873 0.4565103754967625 0.14090232365821048 0.3230779316126202 0.27362195612293 -0.23609868260590094 -0.5554266034385404
185500000.0 -0.25141482770751794 -0.5445159052167762 0.33796634633124106 0.2633391756540974 0.45672424068801193 0.1405883647815945 0.4567242406880799 0.14058836478165357
 0.337966346331241 0.26333917565409726 -0.25141482770729023 -0.5445159052167053 0.456724240688091 0.140588364781664 0.45672424068817036 0.14058836478171496
 0.4567242406880117 0.14058836478159453 0.45672424068809103 0.140588364781664 -0.23723870770345082 -0.5544864606880018 0.3237902263271664 0.2733097311253163
 0.45672424068807954 0.1405883647816534 0.45672424068817 0.140588364781715 0.32379022632716636 0.2733097311253162 -0.23723870770326191 -0.5544864606879336
186000000.0 -0.2525041468932841 -0.5435618943349075 0.33863098381392087 0.2630106425419487 0.456936581539555 0.1402756258967354 0.4569365815396231 0.1402756258967944
 0.33863098381392087 0.26301064254194867 -0.2525041468930562 -0.5435618943348368 0.45693658153963435 0.14027562589680492 0.4569365815397137 0.1402756258968558
 0.45693658153955474 0.14027562589673556 0.4569365815396343 0.14027562589680495 -0.23837192610260946 -0.5535481108634701 0.3244987630232388 0.2729968590705047
 0.4569365815396228 0.1402756258967942 0.4569365815397134 0.14027562589685574 0.3244987630232387 0.27299685907050447 -0.23837192610242058 -0.5535481108634023
186500000.0 -0.2535868261209316 -0.5426099430667916 0.33929200210604765 0.2626817401389873 0.457147412007315 0.1399641014641591 0.4571474120073833 0.13996410146421803
 0.33929200210604754 0.2626817401389872 -0.25358682612070366 -0.5426099430667208 0.45714741200739445 0.13996410146422847 0.45714741200747394 0.13996410146427934
 0.4571474120073149 0.1399641014641592 0.4571474120073945 0.1399641014642285 -0.23949838689968536 -0.5526115623520617 0.32520356288479435 0.27268335942425087
 0.457147412007383 0.13996410146421792 0.4571474120074737 0.13996410146427934 0.32520356288479424 0.27268335942425076 -0.23949838689949626 -0.5526115623519937
187000000.0 -0.25466291472502367 -0.54166005702142 0.33994942293618313 0.2623524851079098 0.45735674589429337 0.139653785957013 0.45735674589436165 0.13965378595707187
 0.339949422936183 0.26235248510790976 -0.25466291472479574 -0.5416600570213493 0.4573567458943729 0.13965378595708228 0.4573567458944525 0.13965378595713301
 0.45735674589429315 0.13965378595701303 0.4573567458943729 0.1396537859570822 -0.24061813880471492 -0.551676823281812 0.325904647015867 0.27236925136829515
 0.4573567458943614 0.13965378595707179 0.4573567458944523 0.13965378595713301 0.3259046470158669 0.2723692513682951 -0.24061813880452573 -0.5516768232817443
187500000.0 -0.25573246163412594 -0.5407122415737747 0.3406032679292216 0.2620228938515677 0.4575645968523251 0.13934467386136282 0.45756459685239353 0.13934467386142152
 0.3406032679292214 0.26202289385156763 -0.25573246163389796 -0.5407122415737043 0.45756459685240475 0.139344673861432 0.4575645968524844 0.1393446738614826
 0.45756459685232476 0.13934467386136276 0.4575645968524047 0.13934467386143184 -0.24173123014451134 -0.550743901526278 0.32660203643959973 0.2720545538040641
 0.4575645968523932 0.13934467386142138 0.45756459685248413 0.1393446738614826 0.3266020364395996 0.27205455380406407 -0.2417312301443221 -0.5507439015262102
188000000.0 -0.25679551537408407 -0.5397665018692108 0.3412535586058944 0.2616929825165459 0.4577709783839678 0.1390367596765927 0.4577709783840364 0.13903675967665138
 0.34125355860589424 0.2616929825165459 -0.2567955153738563 -0.5397665018691405 0.4577709783840476 0.1390367596766619 0.45777097838412745 0.13903675967671236
 0.4577709783839676 0.13903675967659287 0.4577709783840476 0.1390367596766618 -0.24283770886551598 -0.549812804708998 0.32729575209731887 0.2717392853563265
 0.457770978384036 0.1390367596766512 0.457770978384127 0.13903675967671225 0.3272957520973186 0.2717392853563264 -0.2428377088653267 -0.5498128047089308
188500000.0 -0.2578521240712878 -0.538822842827766 0.3419003163823061 0.2613627669966991 0.45797590384436343 0.13873003791579472 0.4579759038444322 0.1387300379158533
 0.34190031638230606 0.26136276699669897 -0.2578521240710597 -0.5388228428276961 0.4579759038444434 0.13873003791586366 0.45797590384452347 0.1387300379159141
 0.4579759038443632 0.13873003791579483 0.4579759038444436 0.1387300379158637 -0.2439376225366359 -0.5488835402078829 0.3279858148476468 0.2714234643768093
 0.457975903844432 0.1387300379158532 0.4579759038445232 0.1387300379159142 0.32798581484764655 0.27142346437680914 -0.24393762253644632 -0.5488835402078156
189000000.0 -0.2589023354559126 -0.5378812691483982 0.3425435625695052 0.2610322629366404 0.45817938644307626 0.13842450310614113 0.4581793864431452 0.13842450310619964
 0.3425435625695051 0.2610322629366404 -0.2589023354556845 -0.5378812691483283 0.45817938644315637 0.13842450310621005 0.4581793864432365 0.13842450310626045
 0.45817938644307615 0.13842450310614113 0.45817938644315653 0.13842450310620993 -0.24503101835207183 -0.5479561151595337 0.32867224546565693 0.27110710894776907
 0.4581793864431448 0.13842450310619953 0.45817938644323614 0.1384245031062604 0.3286722454656566 0.271107108947769 -0.24503101835188237 -0.5479561151594664
189500000.0 -0.2599461968651466 -0.5369417853131503 0.3431833183730838 0.26070148573518664 0.45838143924590363 0.138120149789245 0.45838143924597274 0.1381201497893035
 0.3431833183730838 0.26070148573518653 -0.2599461968649183 -0.5369417853130807 0.458381439245984 0.13812014978931378 0.45838143924606417 0.1381201497893641
 0.45838143924590347 0.13812014978924506 0.458381439245984 0.13812014978931378 -0.2461179431341339 -0.5470305364634924 0.3293550646420636 0.2707902368855222
 0.45838143924597247 0.1381201497893034 0.45838143924606395 0.1381201497893641 0.3293550646420635 0.2707902368855221 -0.24611794313394422 -0.5470305364634255
190000000.0 -0.2609837552463956 -0.5360043955912468 0.3438196048928106 0.26037045054875985 0.45858207517666444 0.1378169725215075 0.4585820751767336 0.137816972521566
 0.3438196048928106 0.2603704505487598 -0.2609837552461672 -0.5360043955911771 0.45858207517674515 0.13781697252157624 0.45858207517682525 0.1378169725216266
 0.45858207517666416 0.13781697252150746 0.45858207517674504 0.13781697252157624 -0.2471984433360447 -0.5461068107864261 0.33003429298245235 0.2704728657439324
 0.4585820751767335 0.13781697252156583 0.4585820751768251 0.1378169725216265 0.3300342929824523 0.2704728657439323 -0.24719844333585486 -0.5461068107863591
190500000.0 -0.26201505716047135 -0.5350691040431192 0.3444524431222922 0.26003917229474527 0.4587813070189615 0.13751496587445244 0.45878130701903097 0.13751496587451087
 0.3444524431222919 0.260039172294745 -0.26201505716024287 -0.5350691040430502 0.45878130701904224 0.137514965874521 0.4587813070191227 0.1375149658745713
 0.45878130701896125 0.1375149658744524 0.4587813070190423 0.137514965874521 -0.2482725650447298 -0.5451849445662394 0.33070995100654293 0.2701550128178585
 0.4587813070190305 0.13751496587451065 0.4587813070191224 0.1375149658745713 0.3307099510065428 0.2701550128178583 -0.24827256504453973 -0.5451849445661726
191000000.0 -0.26304014878476095 -0.5341359145243667 0.34508185394866275 0.2597076656548047 0.4589791474179207 0.13721412443504719 0.45897914741799006 0.1372141244351055
 0.34508185394866264 0.2597076656548046 -0.2630401487845319 -0.5341359145242973 0.45897914741800167 0.13721412443511588 0.4589791474180821 0.13721412443516603
 0.4589791474179204 0.13721412443504716 0.45897914741800183 0.13721412443511571 -0.2493403539835968 -0.5442649440161269 0.33138205914749125 0.2698366951465581
 0.45897914741798984 0.13721412443510544 0.4589791474180819 0.13721412443516612 0.3313820591474911 0.2698366951465581 -0.24934035398340673 -0.5442649440160601
191500000.0 -0.26405907591637456 -0.5332048306896439 0.3457078581523045 0.25937594507814987 0.4591756088819065 0.13691444280601409 0.4591756088819761 0.13691444280607232
 0.3457078581523045 0.2593759450781498 -0.26405907591614575 -0.5332048306895748 0.45917560888198766 0.13691444280608253 0.4591756088820682 0.13691444280613257
 0.4591756088819063 0.136914442806014 0.45917560888198766 0.13691444280608242 -0.2504018555153017 -0.5433468151285554 0.3320506377512242 0.2695179295170545
 0.459175608881976 0.1369144428060722 0.45917560888206804 0.13691444280613269 0.3320506377512242 0.2695179295170545 -0.25040185551511146 -0.5433468151284887
192000000.0 -0.26507188397527787 -0.5322758559964906 0.34633047640659237 0.2590440247847722 0.4593707037842139 0.1366159156061276 0.4593707037842837 0.13661591560618574
 0.3463304764065923 0.25904402478477206 -0.26507188397504894 -0.5322758559964217 0.4593707037842952 0.1366159156061959 0.4593707037843759 0.13661591560624595
 0.45937070378421385 0.1366159156061274 0.4593707037842954 0.13661591560619576 -0.25145711464449944 -0.542430563679186 0.33271570707580683 0.2691987324674604
 0.4593707037842834 0.13661591560618555 0.4593707037843756 0.13661591560624586 0.33271570707580655 0.2691987324674604 -0.2514571146443093 -0.5424305636791193
192500000.0 -0.266078618007402 -0.531348993709092 0.3469497292776683 0.2587119187686296 0.4595644443647379 0.13631853747050063 0.45956444436480787 0.13631853747055872
 0.3469497292776682 0.2587119187686294 -0.2660786180071731 -0.5313489937090233 0.4595644443648194 0.1363185374705689 0.45956444436490024 0.13631853747061884
 0.4595644443647377 0.1363185374705006 0.4595644443648194 0.1363185374705689 -0.2525061760205861 -0.5415161952307305 0.33337728729084504 0.26887912029026134
 0.45956444436480764 0.13631853747055847 0.4595644443649 0.1363185374706188 0.3333772872908449 0.26887912029026134 -0.2525061760203958 -0.5415161952306644
193000000.0 -0.2670793226877353 -0.5304242469019754 0.3475656372242385 0.258379640800794 0.45975684273161954 0.13602230305086088 0.4597568427316897 0.13602230305091886
 0.3475656372242384 0.25837964080079395 -0.2670793226875064 -0.5304242469019068 0.45975684273170114 0.13602230305092908 0.4597568427317821 0.13602230305097893
 0.45975684273161926 0.13602230305086094 0.4597568427317012 0.13602230305092908 -0.2535490839404227 -0.5406037151367498 0.33403539847691816 0.2685591090355618
 0.4597568427316893 0.13602230305091884 0.4597568427317818 0.13602230305097898 0.33403539847691804 0.26855910903556174 -0.2535490839402323 -0.5406037151366836
193500000.0 -0.2680740423233959 -0.5295016184636457 0.3481782205973978 0.2580472044325581 0.4599479108628701 0.13572720701581523 0.4599479108629403 0.1357272070158733
 0.3481782205973975 0.2580472044325579 -0.2680740423231669 -0.5295016184635774 0.4599479108629518 0.1357272070158834 0.45994791086303294 0.13572720701593324
 0.4599479108628698 0.1357272070158153 0.4599479108629519 0.13572720701588342 -0.25458588235104884 -0.5396931285453848 0.3346900606250429 0.2682387145142903
 0.45994791086293996 0.13572720701587307 0.45994791086303266 0.1357272070159332 0.3346900606250428 0.26823871451429027 -0.25458588235085833 -0.5396931285453189
194000000.0 -0.2690628208566838 -0.5285811111001608 0.34878749964047784 0.2577146229984988 0.4601376606079734 0.1354332440511033 0.4601376606080438 0.13543324405116108
 0.34878749964047784 0.25771462299849873 -0.2690628208564544 -0.5285811111000925 0.46013766060805544 0.13543324405117138 0.46013766060813655 0.13543324405122106
 0.4601376606079734 0.1354332440511033 0.4601376606080555 0.13543324405117133 -0.25561661485238124 -0.5387844404030347 0.335341293636168 0.2679179523013661
 0.46013766060804356 0.13543324405116094 0.4601376606081363 0.135433244051221 0.3353412936361679 0.2679179523013659 -0.2556166148521908 -0.5387844404029689
194500000.0 -0.2700457018681125 -0.527662727338642 0.3493934944889198 0.2573819096195054 0.46032610368946686 0.1351404088598417 0.4603261036895375 0.1351404088598995
 0.3493934944889197 0.25738190961950524 -0.27004570186788346 -0.527662727338574 0.46032610368954896 0.13514040885990958 0.4603261036896303 0.1351404088599592
 0.46032610368946675 0.13514040885984166 0.46032610368954907 0.1351404088599096 -0.25664132469989875 -0.5378776554579704 0.3359891173206984 0.2675968377388271
 0.4603261036895372 0.1351404088598994 0.4603261036896301 0.13514040885995915 0.3359891173206982 0.267596837738827 -0.2566413246997079 -0.5378776554579046
195000000.0 -0.27102272857942533 -0.5267464695307296 0.34999622517016715 0.25704907720576314 0.4605132517044992 0.1348486961627573 0.46051325170456997 0.1348486961628151
 0.3499962251701672 0.2570490772057632 -0.27102272857919557 -0.5267464695306613 0.4605132517045816 0.13484869616282538 0.4605132517046632 0.13484869616287495
 0.46051325170449886 0.13484869616275733 0.4605132517045815 0.1348486961628253 -0.2576600548073129 -0.5369727782638929 0.3366335513980473 0.2672753859389201
 0.46051325170456975 0.13484869616281492 0.46051325170466273 0.13484869616287476 0.3366335513980473 0.2672753859389198 -0.25766005480712195 -0.5369727782638274
195500000.0 -0.27199394385658393 -0.5258323398559764 0.35059571160358494 0.2567161384597024 0.46069911612636977 0.13455810069841245 0.4606991161264406 0.13455810069847013
 0.35059571160358477 0.25671613845970237 -0.2719939438563544 -0.5258323398559085 0.4606991161264522 0.13455810069848037 0.4606991161265336 0.1345581006985299
 0.4606991161263695 0.1345581006984125 0.4606991161264521 0.1345581006984803 -0.258672847749224 -0.5360698131834332 0.33727461549621734 0.2669536117871525
 0.46069911612644027 0.1345581006984699 0.4606991161265333 0.13455810069852966 0.33727461549621723 0.26695361178715227 -0.25867284774903326 -0.5360698131833679
196000000.0 -0.27295939021274584 -0.5249203403251873 0.3511919736003968 0.25638310587890484 0.46088370830604464 0.1342686172234174 0.4608837083061156 0.13426861722347516
 0.3511919736003967 0.25638310587890484 -0.27295939021251614 -0.5249203403251194 0.46088370830612724 0.1342686172234853 0.46088370830620884 0.1342686172235348
 0.4608837083060443 0.13426861722341746 0.46088370830612724 0.13426861722348526 -0.2596797457637649 -0.5351687643915963 0.3379123291514079 0.26663152994530726
 0.4608837083061153 0.13426861722347516 0.4608837083062087 0.1342686172235348 0.3379123291514079 0.26663152994530737 -0.25967974576357356 -0.5351687643915308
196500000.0 -0.2739191098112151 -0.524010472783697 0.3517850308636461 0.2560499917589756 0.46106703947365435 0.13398024051263802 0.46106703947372546 0.13398024051269555
 0.35178503086364593 0.2560499917589756 -0.27391910981098555 -0.5240104727836293 0.46106703947373695 0.13398024051270574 0.4610670394738188 0.13398024051275514
 0.46106703947365424 0.13398024051263804 0.4610670394737371 0.13398024051270566 -0.26068079075522643 -0.534269635879149 0.33854671180764984 0.26630915485442097
 0.4610670394737251 0.1339802405126956 0.4610670394738185 0.1339802405127552 0.33854671180764967 0.26630915485442097 -0.2606807907550352 -0.5342696358790835
197000000.0 -0.2748731444683765 -0.5231027389145977 0.3523749029881757 0.2557168081963745 0.4612491207399701 0.13369296535939001 0.46124912074004126 0.13369296535944736
 0.35237490298817553 0.2557168081963744 -0.27487314446814654 -0.5231027389145301 0.4612491207400531 0.13369296535945768 0.4612491207401348 0.1336929653595069
 0.4612491207399698 0.13369296535938993 0.4612491207400531 0.13369296535945752 -0.26167602429667325 -0.5333724314559533 0.339177782816465 0.26598650073772345
 0.4612491207400409 0.13369296535944714 0.46124912074013447 0.13369296535950675 0.3391777828164648 0.26598650073772323 -0.26167602429648223 -0.5333724314558882
197500000.0 -0.275821535656608 -0.5221971402419081 0.35296160946062743 0.2553835670912115 0.46142996309785983 0.13340678657562766 0.46142996309793116 0.13340678657568522
 0.3529616094606273 0.2553835670912114 -0.27582153565637785 -0.5221971402418408 0.46142996309794304 0.13340678657569535 0.461429963098025 0.1334067865757445
 0.46142996309785944 0.1334067865756276 0.461429963097943 0.1334067865756952 -0.26266548763253966 -0.5324771547542472 0.3398055614365512 0.2656635816035437
 0.4614299630979308 0.133406786575685 0.46142996309802464 0.1334067865757445 0.33980556143655116 0.26566358160354353 -0.26266548763234815 -0.5324771547541821
198000000.0 -0.27676432450717553 -0.5212936781336903 0.3535451696594617 0.25505028015000447 0.4616095774237262 0.13312169899212312 0.46160957742379766 0.13312169899218057
 0.35354516965946153 0.2550502801500044 -0.27676432450694566 -0.5212936781336232 0.46160957742380937 0.1331216989921907 0.4616095774238914 0.13312169899223986
 0.461609577423726 0.13312169899212317 0.4616095774238095 0.1331216989921906 -0.26364922168121463 -0.5315838092318701 0.34043006683349314 0.26534041124817775
 0.46160957742379755 0.13312169899218054 0.46160957742389125 0.13312169899223986 0.34043006683349314 0.2653404112481777 -0.26364922168102306 -0.5315838092318051
198500000.0 -0.27770155181310424 -0.5203923538051118 0.3541256028549953 0.2547169588884017 0.46178797447892367 0.13283769745863627 0.46178797447899533 0.1328376974586936
 0.35412560285499534 0.2547169588884017 -0.27770155181287426 -0.5203923538050448 0.4617879744790071 0.13283769745870372 0.4617879744790892 0.13283769745875273
 0.4617879744789236 0.13283769745863638 0.4617879744790072 0.13283769745870375 -0.2646272670376105 -0.5306923981754386 0.341051318079494 0.26501700325872196
 0.46178797447899517 0.13283769745869356 0.46178797447908887 0.13283769745875282 0.3410513180794939 0.26501700325872185 -0.26462726703741896 -0.5306923981753738
199000000.0 -0.2786332580320327 -0.5194931683214585 0.35470292820945654 0.25438361463386666 0.4619651649111571 0.13255477684407826 0.4619651649112288 0.13255477684413558
 0.3547029282094564 0.25438361463386655 -0.27863325803180256 -0.5194931683213917 0.4619651649112407 0.1325547768441455 0.46196516491132283 0.13255477684419456
 0.46196516491115686 0.13255477684407832 0.46196516491124073 0.13255477684414554 -0.2655996639757161 -0.529802924703469 0.3416693341531323 0.2646933710158706
 0.46196516491122847 0.1325547768441355 0.4619651649113227 0.13255477684419464 0.3416693341531322 0.26469337101587065 -0.2655996639755243 -0.5298029247034043
199500000.0 -0.2795594832890451 -0.5185961226010936 0.3552771647770591 0.2540502585283281 0.46214115925586186 0.13227293203666587 0.4621411592559338 0.132272932036723
 0.355277164777059 0.254050258528328 -0.27955948328881475 -0.5185961226010267 0.4621411592559456 0.13227293203673313 0.462141159256028 0.13227293203678195
 0.46214115925586163 0.13227293203666585 0.4621411592559457 0.13227293203673302 -0.2665664524511353 -0.5289153917694509 0.3422841339391417 0.2643695276966789
 0.4621411592559336 0.13227293203672283 0.4621411592560277 0.13227293203678192 0.34228413393914164 0.26436952769667876 -0.2665664524509437 -0.5289153917693865
200000000.0 -0.28048026737948445 -0.5177012174183664 0.3558483315040917 0.2537169015307955 0.462315967937565 0.13199215794406952 0.462315967937637 0.13199215794412672
 0.35584833150409145 0.25371690153079546 -0.28048026737925397 -0.5177012174182996 0.46231596793764895 0.13199215794413677 0.4623159679377313 0.1319921579441857
 0.4623159679375648 0.1319921579440697 0.46231596793764906 0.13199215794413688 -0.2675276721036107 -0.5280298021648685 0.34289573622821046 0.26404548627729146
 0.46231596793763674 0.13199215794412664 0.46231596793773116 0.13199215794418562 0.3428957362282104 0.2640454862772913 -0.26752767210341893 -0.5280298021648042
