! Created with skrf 2.0.1 (http://scikit-rf.org).
# Hz S RI R 50.0 
!freq ReS11 ImS11
!
500000.0 0.9999870820250669 -0.005082891204049912
1000000.0 0.9999483291014927 -0.010165585429933179
1500000.0 0.9998837442327582 -0.015247885724927428
2000000.0 0.9997933324240188 -0.020329595187191928
2500000.0 0.9996771006811351 -0.025410516991191196
3000000.0 0.9995350580093141 -0.030490454413097823
3500000.0 0.9993672154113667 -0.035569210856167814
4000000.0 0.9991735858855786 -0.04064658987608148
4500000.0 0.9989541844231916 -0.0457223952062429
5000000.0 0.998709028005507 -0.05079643078303148
5500000.0 0.9984381356005995 -0.05586850077099831
6000000.0 0.9981415281596517 -0.06093840958800102
6500000.0 0.9978192286129085 -0.06600596193026999
7000000.0 0.9974712618652481 -0.07107096279739938
7500000.0 0.9970976547913801 -0.07613321751725634
8000000.0 0.9966984362306623 -0.08119253177080148
8500000.0 0.996273636981547 -0.08624871161681431
9000000.0 0.9958232897956542 -0.09130156351651703
9500000.0 0.9953474293714715 -0.09635089435808968
10000000.0 0.9948460923476904 -0.10139651148107096
10500000.0 0.994319317296174 -0.10643822270063766
11000000.0 0.993767144714563 -0.11147583633175664
11500000.0 0.9931896170185208 -0.11650916121320311
12000000.0 0.9925867785336197 -0.12153800673143843
12500000.0 0.991958675486875 -0.12656218284434212
13000000.0 0.991305355997925 -0.13158150010479133
13500000.0 0.9906268700698632 -0.13659576968408185
14000000.0 0.9899232695797241 -0.1416048033951846
14500000.0 0.9891946082686296 -0.14660841371583255
15000000.0 0.9884409417315924 -0.15160641381143014
15500000.0 0.9876623274069894 -0.15659861755778273
16000000.0 0.9868588245656995 -0.16158483956363662
16500000.0 0.9860304942999155 -0.16656489519302745
17000000.0 0.9851773995116344 -0.17153860058742942
17500000.0 0.9842996049008238 -0.17650577268770057
18000000.0 0.983397176953277 -0.18146622925581865
18500000.0 0.9824701839281539 -0.1864197888964031
19000000.0 0.9815186958452169 -0.19136627107801643
19500000.0 0.9805427844717621 -0.19630549615424206
20000000.0 0.9795425233092562 -0.20123728538453184
20500000.0 0.9785179875796737 -0.20616146095481921
21000000.0 0.9774692542115528 -0.21107784599789364
21500000.0 0.9763964018257614 -0.21598626461353135
22000000.0 0.9752995107209856 -0.22088654188837703
22500000.0 0.9741786628589465 -0.22577850391557402
23000000.0 0.9730339418493431 -0.23066197781413658
23500000.0 0.9718654329345344 -0.23553679174806172
24000000.0 0.9706732229739623 -0.2404027749451754
24500000.0 0.9694574004283176 -0.24525975771570957
25000000.0 0.9682180553434621 -0.2501075714706071
25500000.0 0.9669552793341023 -0.254946048739548
26000000.0 0.9656691655672305 -0.25977502318869783
26500000.0 0.9643598087453289 -0.26459432963817003
27000000.0 0.9630273050893494 -0.2694038040792024
27500000.0 0.9616717523214715 -0.27420328369104224
28000000.0 0.9602932496476452 -0.2789926068575391
28500000.0 0.9588918977399218 -0.2837716131834392
29000000.0 0.9574677987185826 -0.2885401435103817
29500000.0 0.9560210561340685 -0.29329803993259207
30000000.0 0.9545517749487151 -0.29804514581227026
30500000.0 0.9530600615183037 -0.3027813057946725
31000000.0 0.9515460235734287 -0.30750636582288166
31500000.0 0.9500097702006906 -0.3122201731522663
32000000.0 0.9484514118237201 -0.31692257636462606
32500000.0 0.9468710601840383 -0.32161342538201887
33000000.0 0.9452688283217594 -0.32629257148027163
33500000.0 0.943644830556142 -0.33095986730216986
34000000.0 0.9419991824659951 -0.3356151668703263
34500000.0 0.9403320008699434 -0.34025832559972535
35000000.0 0.9386434038065614 -0.3448892003099435
35500000.0 0.9369335105143776 -0.3495076492370441
36000000.0 0.9352024414117582 -0.3541135320451439
36500000.0 0.9334503180766753 -0.3587067098376525
37000000.0 0.9316772632263659 -0.36328704516818217
37500000.0 0.9298834006968869 -0.3678544020511275
38000000.0 0.9280688554225727 -0.37240864597191586
38500000.0 0.9262337534154012 -0.37694964389692437
39000000.0 0.9243782217442745 -0.381477264283067
39500000.0 0.9225023885142211 -0.38599137708705006
40000000.0 0.9206063828455217 -0.39049185377429413
40500000.0 0.918690334852771 -0.3949785673275245
41000000.0 0.9167543756238737 -0.3994513922550297
41500000.0 0.9147986371989888 -0.40391020459858734
42000000.0 0.9128232525494208 -0.4083548819410594
42500000.0 0.9108283555564669 -0.4127853034136539
43000000.0 0.9088140809902284 -0.41720134970285827
43500000.0 0.9067805644883862 -0.42160290305704023
44000000.0 0.9047279425349508 -0.42598984729272005
44500000.0 0.9026563524389921 -0.43036206780051406
45000000.0 0.9005659323133512 -0.4347194515507495
45500000.0 0.8984568210533446 -0.43906188709875316
46000000.0 0.8963291583154616 -0.44338926458981426
46500000.0 0.8941830844960645 -0.4477014757638215
47000000.0 0.892018740710096 -0.45199841395957885
47500000.0 0.8898362687697942 -0.4562799741187975
48000000.0 0.8876358111634314 -0.4605460527897697
48500000.0 0.8854175110340692 -0.4647965481307212
49000000.0 0.8831815121583462 -0.4690313599128495
49500000.0 0.8809279589252951 -0.47325038952304477
50000000.0 0.8786569963152006 -0.4774535399662986
50500000.0 0.8763687698784983 -0.4816407158678005
51000000.0 0.8740634257147251 -0.48581182347472707
51500000.0 0.871741110451517 -0.4899667706577212
52000000.0 0.8694019712236718 -0.49410546691206914
52500000.0 0.867046155652269 -0.4982278233585729
53000000.0 0.8646738118238605 -0.5023337527441243
53500000.0 0.8622850882697323 -0.5064231694419794
54000000.0 0.859880133945243 -0.5104959894517399
54500000.0 0.8574590982092439 -0.5145521303990396
55000000.0 0.8550221308035847 -0.518591511534944
55500000.0 0.8525693818327096 -0.5226140537350592
56000000.0 0.8501010017433481 -0.5266196794983604
56500000.0 0.8476171413043037 -0.5306083129457361
57000000.0 0.8451179515863454 -0.5345798798182547
57500000.0 0.8426035839422077 -0.538534307475157
58000000.0 0.8400741899866997 -0.5424715248915747
58500000.0 0.83752992157693 -0.5463914626559805
59000000.0 0.8349709307926493 -0.550294052967372
59500000.0 0.8323973699167172 -0.554179229632194
60000000.0 0.8298093914156928 -0.558046928060999
60500000.0 0.8272071479205564 -0.5618970852648538
61000000.0 0.824590792207565 -0.5657296398514933
61500000.0 0.8219604771792417 -0.5695445320212223
62000000.0 0.8193163558455079 -0.5733417035625764
62500000.0 0.8166585813049569 -0.5771210978477351
63000000.0 0.813987306726275 -0.5808826598277013
63500000.0 0.811302685329811 -0.584626336027242
64000000.0 0.8086048703692983 -0.5883520745395994
64500000.0 0.8058940151137332 -0.5920598250209735
65000000.0 0.8031702728294106 -0.5957495386847814
65500000.0 0.8004337967621205 -0.5994211682956955
66000000.0 0.7976847401195082 -0.6030746681634644
66500000.0 0.7949232560536015 -0.6067099941365233
67000000.0 0.7921494976435052 -0.6103271035953937
67500000.0 0.7893636178782674 -0.6139259554458769
68000000.0 0.7865657696399189 -0.6175065101120488
68500000.0 0.7837561056866892 -0.6210687295290559
69000000.0 0.7809347786363973 -0.6246125771357162
69500000.0 0.7781019409500275 -0.6281380178669331
70000000.0 0.7752577449154813 -0.6316450181459223
70500000.0 0.7724023426315164 -0.6351335458762556
71000000.0 0.7695358859918708 -0.6386035704337286
71500000.0 0.7666585266695739 -0.6420550626580542
72000000.0 0.7637704161014462 -0.645487994844384
72500000.0 0.7608717054727892 -0.6489023407346665
73000000.0 0.757962545702269 -0.6522980755088399
73500000.0 0.755043087426991 -0.6556751757758696
74000000.0 0.7521134809877713 -0.65903361956463
74500000.0 0.7491738764146031 -0.662373386314635
75000000.0 0.7462244234123202 -0.6656944568666243
75500000.0 0.7432652713464593 -0.6689968134530045
76000000.0 0.7402965692293203 -0.6722804396881541
76500000.0 0.7373184657062296 -0.6755453205585924
77000000.0 0.7343311090420012 -0.6787914424130171
77500000.0 0.7313346471076018 -0.6820187929522173
78000000.0 0.7283292273670176 -0.6852273612188611
78500000.0 0.7253149968643249 -0.6884171375871642
79000000.0 0.7222921022109645 -0.6915881137524454
79500000.0 0.71926068957322 -0.6947402827205689
80000000.0 0.716220904659901 -0.6978736387972777
80500000.0 0.7131728927102311 -0.7009881775774263
81000000.0 0.7101167984819432 -0.7040838959341102
81500000.0 0.7070527662395778 -0.7071607920077024
82000000.0 0.7039809397429883 -0.7102188651947926
82500000.0 0.7009014622360533 -0.7132581161370422
83000000.0 0.6978144764355924 -0.7162785467099513
83500000.0 0.6947201245204909 -0.7192801600115448
84000000.0 0.6916185481210271 -0.7222629603509808
84500000.0 0.6885098883084083 -0.7252269532370835
85000000.0 0.6853942855845103 -0.7281721453668073
85500000.0 0.6822718798718219 -0.7310985446136317
86000000.0 0.6791428105035965 -0.7340061600158926
86500000.0 0.6760072162142051 -0.7368950017650554
87000000.0 0.6728652351296956 -0.7397650811939284
87500000.0 0.6697170047585549 -0.7426164107648242
88000000.0 0.6665626619826728 -0.7454490040576707
88500000.0 0.6634023430485105 -0.7482628757580763
89000000.0 0.6602361835584691 -0.7510580416453494
89500000.0 0.6570643184624589 -0.7538345185804801
90000000.0 0.6538868820496702 -0.7565923244940834
90500000.0 0.650704007940542 -0.7593314783743099
91000000.0 0.6475158290789309 -0.7620520002547233
91500000.0 0.6443224777244752 -0.7647539112021545
92000000.0 0.6411240854451593 -0.7674372333045275
92500000.0 0.6379207831100696 -0.7701019896586655
93000000.0 0.6347127008823485 -0.7727482043580782
93500000.0 0.6314999682123397 -0.7753759024807348
94000000.0 0.6282827138309268 -0.7779851100768226
94500000.0 0.6250610657430644 -0.7805758541564968
95000000.0 0.6218351512214967 -0.7831481626776242
95500000.0 0.6186050968006673 -0.7857020645335209
96000000.0 0.6153710282708154 -0.7882375895406913
96500000.0 0.612133070672259 -0.7907547684265654
97000000.0 0.6088913482898624 -0.793253632817243
97500000.0 0.6056459846476878 -0.7957342152252427
98000000.0 0.602397102503829 -0.7981965490372601
98500000.0 0.5991448238454257 -0.8006406685019403
99000000.0 0.5958892698838577 -0.8030666087176597
99500000.0 0.592630561050116 -0.8054744056203305
100000000.0 0.5893688169903517 -0.807864095971218
100500000.0 0.5861041565615974 -0.8102357173447851
101000000.0 0.5828366978276642 -0.8125893081165566
101500000.0 0.5795665580552092 -0.8149249074510105
102000000.0 0.5762938537099725 -0.8172425552894984
102500000.0 0.5730187004531848 -0.8195422923381949
103000000.0 0.569741213138138 -0.8218241600560809
103500000.0 0.5664615058069249 -0.82408820064296
104000000.0 0.5631796916873393 -0.8263344570275123
104500000.0 0.5598958831899395 -0.8285629728553875
105000000.0 0.5566101919052713 -0.8307737924773367
105500000.0 0.5533227286012475 -0.8329669609373892
106000000.0 0.5500336032206873 -0.8351425239610708
106500000.0 0.5467429248790068 -0.8373005279436702
107000000.0 0.543450801862065 -0.8394410199385534
107500000.0 0.5401573416241585 -0.8415640476455267
108000000.0 0.5368626507861681 -0.8436696593992514
108500000.0 0.5335668351338508 -0.8457579041577123
109000000.0 0.5302699996162775 -0.8478288314907396
109500000.0 0.5269722483444157 -0.8498824915685884
110000000.0 0.5236736845898525 -0.8519189351505736
110500000.0 0.5203744107836604 -0.8539382135737681
111000000.0 0.5170745285153965 -0.8559403787417558
111500000.0 0.513774138532243 -0.857925483113453
112000000.0 0.5104733407382789 -0.8598935796919879
112500000.0 0.5071722341938861 -0.8618447220136479
113000000.0 0.5038709171152851 -0.8637789641368917
113500000.0 0.5005694868741988 -0.8656963606314292
114000000.0 0.4972680399976457 -0.8675969665673687
114500000.0 0.4939666721678551 -0.8694808375044356
115000000.0 0.49066547822230816 -0.8713480294812593
115500000.0 0.4873645521538973 -0.8731985990047345
116000000.0 0.4840639871112078 -0.8750326030394528
116500000.0 0.4807638753989147 -0.8768500989972098
117000000.0 0.47746430847829613 -0.8786511447265873
117500000.0 0.47416537696786065 -0.8804357985026089
118000000.0 0.47086717064408506 -0.8822041190164747
118500000.0 0.46756977844226366 -0.8839561653653719
119000000.0 0.46427328845746424 -0.8856919970423646
119500000.0 0.46097778794559185 -0.8874116739263626
120000000.0 0.45768336332455406 -0.8891152562721687
120500000.0 0.4543901001755318 -0.8908028047006082
121000000.0 0.4510980832443493 -0.892474380188739
121500000.0 0.44780739644294176 -0.8941300440601434
122000000.0 0.444518122850922 -0.895769857975302
122500000.0 0.4412303447172407 -0.8973938839220517
123000000.0 0.4379441434619401 -0.8990021842061272
123500000.0 0.43465959967800033 -0.9005948214417849
124000000.0 0.4313767931332723 -0.9021718585425139
124500000.0 0.42809580277250375 -0.9037333587118302
125000000.0 0.42481670671944405 -0.9052793854341573
125500000.0 0.42153958227904076 -0.9068100024657934
126000000.0 0.41826450593971287 -0.9083252738259615
126500000.0 0.4149915533757086 -0.9098252637879518
127000000.0 0.41172079944954 -0.9113100368703462
127500000.0 0.4084523182144952 -0.9127796578283308
128000000.0 0.4051861829172278 -0.9142341916450988
128500000.0 0.40192246600041676 -0.9156737035233368
129000000.0 0.39866123910550333 -0.9170982588768035
129500000.0 0.395402573075493 -0.9185079233219926
130000000.0 0.39214653795783033 -0.9199027626698856
130500000.0 0.38889320300733937 -0.9212828429177936
131000000.0 0.38564263668922943 -0.9226482302412871
131500000.0 0.3823949066821653 -0.9239989909862123
132000000.0 0.3791500798813988 -0.9253351916607996
132500000.0 0.3759082224019633 -0.9266568989278589
133000000.0 0.37266939958192363 -0.927964179597062
133500000.0 0.36943367598568705 -0.9292571006173169
134000000.0 0.36620111540736777 -0.930535729069228
134500000.0 0.36297178087420834 -0.9318001321576455
135000000.0 0.35974573465005094 -0.9330503772043047
135500000.0 0.3565230382388621 -0.9342865316405512
136000000.0 0.35330375238830697 -0.9355086630001572
136500000.0 0.35008793709337205 -0.9367168389122228
137000000.0 0.3468756516000345 -0.9379111270941675
137500000.0 0.3436669544089769 -0.9390915953448089
138000000.0 0.3404619032793478 -0.9402583115375285
138500000.0 0.3372605552325616 -0.941411343613526
139000000.0 0.3340629665561431 -0.9425507595751589
139500000.0 0.33086919280761046 -0.9436766274793713
140000000.0 0.3276792888183966 -0.9447890154312072
140500000.0 0.32449330869780807 -0.9458879915774114
141000000.0 0.3213113058370197 -0.9469736241001168
141500000.0 0.3181333329131047 -0.948045981210616
142000000.0 0.31495944189309627 -0.9491051311432201
142500000.0 0.3117896840380826 -0.9501511421492017
143000000.0 0.3086241099073327 -0.9511840824908219
143500000.0 0.3054627693624502 -0.9522040204354434
144000000.0 0.3023057115715579 -0.9532110242497273
144500000.0 0.2991529850135057 -0.9542051621939117
145000000.0 0.29600463748210964 -0.9551865025161762
145500000.0 0.2928607160904102 -0.956155113447087
146000000.0 0.28972126727495734 -0.9571110631941273
146500000.0 0.2865863368001171 -0.9580544199363052
147000000.0 0.2834559697623989 -0.9589852518188472
147500000.0 0.28033021059480534 -0.9599036269479725
148000000.0 0.27720910307119645 -0.9608096133857439
148500000.0 0.2740926903106776 -0.9617032791450046
149000000.0 0.27098101478199904 -0.9625846921843907
149500000.0 0.26787411830797475 -0.9634539204034228
150000000.0 0.2647720420699156 -0.9643110316376802
150500000.0 0.2616748266120743 -0.9651560936540476
151000000.0 0.2585825118461065 -0.9659891741460451
151500000.0 0.25549513705554017 -0.9668103407292307
152000000.0 0.2524127409002591 -0.9676196609366816
152500000.0 0.24933536142099388 -0.9684172022145529
153000000.0 0.24626303604382363 -0.9692030319177083
153500000.0 0.2431958015846848 -0.9699772173054285
154000000.0 0.2401336942538871 -0.9707398255371934
154500000.0 0.2370767496606373 -0.971490923668537
155000000.0 0.2340250028175658 -0.9722305786469783
155500000.0 0.2309784881452609 -0.9729588573080208
156000000.0 0.22793723947680455 -0.9736758263712281
156500000.0 0.22490129006231221 -0.9743815524363686
157000000.0 0.2218706725734736 -0.9750761019796323
157500000.0 0.21884541910809716 -0.9757595413499174
158000000.0 0.21582556119465277 -0.9764319367651867
158500000.0 0.21281112979681488 -0.9770933543088925
159000000.0 0.2098021553180062 -0.9777438599264734
159500000.0 0.20679866760593815 -0.978383519421913
160000000.0 0.2038006959571487 -0.9790123984543718
160500000.0 0.20080826912153937 -0.9796305625348831
161000000.0 0.19782141530690586 -0.980238077023114
161500000.0 0.1948401621834663 -0.9808350071241954
162000000.0 0.19186453688838265 -0.9814214178856127
162500000.0 0.18889456603027877 -0.9819973741941639
163000000.0 0.18593027569374956 -0.9825629407729797
163500000.0 0.18297169144386535 -0.983118182178608
164000000.0 0.1800188383306665 -0.983663162798159
164500000.0 0.17707174089365343 -0.9841979468465125
165000000.0 0.1741304231662634 -0.984722598363589
165500000.0 0.17119490868034076 -0.9852371812116764
166000000.0 0.16826522047059866 -0.9857417590728217
166500000.0 0.1653413810790668 -0.986236395446278
167000000.0 0.1624234125595313 -0.9867211536460117
167500000.0 0.15951133648196122 -0.9871960967982696
168000000.0 0.15660517393692547 -0.9876612878391992
168500000.0 0.15370494553999509 -0.9881167895125289
169000000.0 0.15081067143613344 -0.9885626643673038
169500000.0 0.14792237130407393 -0.9889989747556768
170000000.0 0.1450400643606835 -0.989425782830753
170500000.0 0.1421637693653112 -0.9898431505444925
171000000.0 0.13929350462412263 -0.9902511396456606
171500000.0 0.1364292879944211 -0.9906498116778376
172000000.0 0.13357113688894953 -0.9910392279774769
172500000.0 0.13071906828018096 -0.9914194496720152
173000000.0 0.12787309870458924 -0.9917905376780354
173500000.0 0.12503324426690546 -0.992152552699479
174000000.0 0.12219952064435602 -0.9925055552259088
174500000.0 0.1193719430908852 -0.9928496055308209
175000000.0 0.11655052644135841 -0.9931847636700043
175500000.0 0.11373528511574696 -0.993511089479951
176000000.0 0.11092623312329858 -0.9938286425763124
176500000.0 0.10812338406668368 -0.9941374823523998
177000000.0 0.10532675114612775 -0.9944376679777379
177500000.0 0.10253634716352099 -0.9947292583966564
178000000.0 0.09975218452651179 -0.9950123123269322
178500000.0 0.09697427525257715 -0.9952868882584748
179000000.0 0.0942026309730757 -0.9955530444520525
179500000.0 0.09143726293728012 -0.995810838938068
180000000.0 0.08867818201638752 -0.9960603295153704
180500000.0 0.08592539870751151 -0.9963015737501146
181000000.0 0.0831789231376504 -0.9965346289746589
181500000.0 0.0804387650676396 -0.9967595522865046
182000000.0 0.07770493389607525 -0.996976400547278
182500000.0 0.07497743866322182 -0.9971852303817494
183000000.0 0.07225628805489867 -0.9973860981768934
183500000.0 0.0695414904063386 -0.9975790600809867
184000000.0 0.06683305370603136 -0.9977641720027467
184500000.0 0.06413098559954057 -0.9979414896105039
185000000.0 0.061435293393300186 -0.9981110683314153
185500000.0 0.05874598405838819 -0.9982729633507119
186000000.0 0.05606306423427488 -0.9984272296109836
186500000.0 0.05338654023255454 -0.9985739218114991
187000000.0 0.05071641804064706 -0.9987130944075612
187500000.0 0.04805270332548173 -0.9988448016098964
188000000.0 0.04539540143715475 -0.998969097384078
188500000.0 0.042744517412566074 -0.999086035449984
189000000.0 0.04010005597902967 -0.9991956692812869
189500000.0 0.037462021557863344 -0.9992980521049755
190000000.0 0.034830418267952884 -0.9993932369009105
190500000.0 0.032205249929294306 -0.9994812764014098
191000000.0 0.029586520066510556 -0.999562223090866
191500000.0 0.026974231912344517 -0.9996361292053919
192000000.0 0.024368388411131803 -0.9997030467325007
192500000.0 0.021768992222243468 -0.9997630274108099
193000000.0 0.01917604572350892 -0.9998161227297796
193500000.0 0.016589551014615154 -0.9998623839294752
194000000.0 0.014009509920478573 -0.9999018620003605
194500000.0 0.011435923994596907 -0.9999346076831174
195000000.0 0.008868794522371647 -0.9999606714684931
195500000.0 0.00630812252441293 -0.9999801035971749
196000000.0 0.003753908759814689 -0.9999929540596888
196500000.0 0.0012061537294067452 -0.9999992725963258
197000000.0 -0.0013351423210137916 -0.9999991086970942
197500000.0 -0.003869979397480328 -0.9999925116016936
198000000.0 -0.006398357754676116 -0.9999795302995174
198500000.0 -0.008920277892777563 -0.9999602135296763
199000000.0 -0.011435740554323245 -0.9999346097810468
199500000.0 -0.013944746721105785 -0.9999027672923424
200000000.0 -0.016447297611090136 -0.9998647340522078
