! Created with skrf 2.0.1 (http://scikit-rf.org).
# Hz S RI R 50.0 
!freq ReS11 ImS11 ReS12 ImS12 ReS13 ImS13
! ReS14 ImS14
! ReS21 ImS21 ReS22 ImS22 ReS23 ImS23
! ReS24 ImS24
! ReS31 ImS31 ReS32 ImS32 ReS33 ImS33
! ReS34 ImS34
! ReS41 ImS41 ReS42 ImS42 ReS43 ImS43
! ReS44 ImS44
!
500000.0 0.9999287039802162 -0.009680689579407419 -9.751697849148717e-06 0.0009249331480874472 4.052385881639915e-05 0.004377878215660202 4.0523858816397106e-05 0.004377878215660372
 -9.751697849148702e-06 0.0009249331480874475 0.999928703980216 -0.009680689579405249 4.0523858816395866e-05 0.0043778782156603515 4.052385881639576e-05 0.004377878215660699
 4.0523858816399125e-05 0.0043778782156602 4.052385881639587e-05 0.004377878215660352 0.9999310994333466 -0.0094606450959437 -1.214715097940308e-05 0.000704888664623717
 4.052385881639707e-05 0.004377878215660369 4.0523858816395717e-05 0.004377878215660696 -1.2147150979403073e-05 0.0007048886646237165 0.9999310994333467 -0.009460645095942027
1000000.0 0.9997245448192604 -0.019358338218540855 -3.9904636386876535e-05 0.0018510054990066571 0.00015767990856325632 0.008753666359767532 0.00015767990856324794 0.008753666359767872
 -3.990463638687652e-05 0.0018510054990066571 0.9997245448192602 -0.01935833821853652 0.00015767990856324315 0.008753666359767837 0.00015767990856324225 0.00875366635976853
 0.00015767990856325618 0.008753666359767527 0.0001576799085632431 0.008753666359767836 0.9997339049808365 -0.01891836063104145 -4.92647979629451e-05 0.0014110279115072347
 0.00015767990856324778 0.008753666359767863 0.00015767990856324214 0.008753666359768522 -4.92647979629451e-05 0.0014110279115072334 0.9997339049808363 -0.018918360631038102
1500000.0 0.9993876610322745 -0.029030041649298555 -9.03798972648903e-05 0.0027793331458026336 0.00035135943249525324 0.0131253542517486 0.00035135943249523454 0.013125354251749117
 -9.037989726489019e-05 0.0027793331458026336 0.9993876610322745 -0.029030041649292047 0.00035135943249522337 0.013125354251749054 0.0003513594324952214 0.0131253542517501
 0.00035135943249525313 0.013125354251748598 0.00035135943249522354 0.013125354251749063 0.9994085505606812 -0.028370349044002745 -0.0001112694256718963 0.0021196405405068232
 0.0003513594324952343 0.013125354251749108 0.0003513594324952213 0.013125354251750097 -0.0001112694256718962 0.002119640540506822 0.9994085505606817 -0.02837034904399775
2000000.0 0.998918280261874 -0.03869290294824603 -0.0001610473200520263 0.0037110269235839056 0.0006213835290890561 0.017490938012331925 0.0006213835290890225 0.01749093801233261
 -0.00016104732005202621 0.003711026923583905 0.9989182802618741 -0.038692902948237365 0.0006213835290890031 0.017490938012332532 0.000621383529088999 0.017490938012333923
 0.0006213835290890558 0.017490938012331914 0.0006213835290890032 0.01749093801233254 0.9989552562670474 -0.03781381992035109 -0.0001980233252255435 0.002831943895688938
 0.000621383529089022 0.017490938012332598 0.0006213835290889987 0.017490938012333916 -0.00019802332522554335 0.002831943895688936 0.9989552562670476 -0.03781381992034442
2500000.0 0.9983167188257889 -0.0483440360924281 -0.00025172587218594663 0.004647189856013646 0.0009675035231983753 0.02184842311820831 0.0009675035231983228 0.021848423118209167
 -0.0002517258721859463 0.004647189856013646 0.9983167188257897 -0.04834403609241728 0.0009675035231982925 0.021848423118209073 0.0009675035231982861 0.021848423118210808
 0.0009675035231983747 0.021848423118208296 0.0009675035231982927 0.02184842311820908 0.9983743279269006 -0.047245993452664864 -0.00030933497329740933 0.0035491472162503604
 0.0009675035231983221 0.021848423118209146 0.0009675035231982852 0.02184842311821079 -0.00030933497329740906 0.0035491472162503587 0.998374327926901 -0.047245993452656516
3000000.0 0.9975833810897236 -0.057980569483326826 -0.00036218416193438147 0.005588914630005738 0.0013894015361052196 0.02619582742666184 0.0013894015361051437 0.026195827426662866
 -0.00036218416193438115 0.005588914630005738 0.9975833810897244 -0.05798056948331386 0.0013894015361051002 0.02619582742666275 0.001389401536105091 0.026195827426664844
 0.0013894015361052188 0.026195827426661822 0.0013894015361051004 0.02619582742666276 0.9976661564856298 -0.05666410386943086 -0.0004449595578405448 0.004272449016109731
 0.0013894015361051429 0.026195827426662845 0.0013894015361050904 0.026195827426664826 -0.0004449595578405444 0.00427244901610973 0.9976661564856305 -0.05666410386942087
3500000.0 0.9967187586679541 -0.06759964942879025 -0.0004921410920224637 0.006537281107628747 0.0018866912120341047 0.030531184160582252 0.001886691212034002 0.03053118416058346
 -0.0004921410920224633 0.006537281107628747 0.996718758667955 -0.06759964942877517 0.0018866912120339434 0.030531184160583338 0.001886691212033931 0.030531184160585763
 0.0018866912120341034 0.030531184160582234 0.0018866912120339438 0.030531184160583338 0.996831217223944 -0.06606540282248499 -0.0006045996480127177 0.00500303450132346
 0.001886691212034001 0.030531184160583445 0.0018866912120339301 0.030531184160585756 -0.0006045996480127175 0.005003034501323458 0.996831217223945 -0.06606540282247335
4000000.0 0.995723429454872 -0.07719844357297752 -0.0006412666509509009 0.007493353884008758 0.002458918598039513 0.034852544844486084 0.0024589185980393793 0.03485254484448747
 -0.000641266650950901 0.007493353884008758 0.995723429454873 -0.07719844357296024 0.0024589185980393017 0.034852544844487326 0.0024589185980392857 0.034852544844490116
 0.002458918598039512 0.034852544844486084 0.002458918598039302 0.034852544844487326 0.995870068809214 -0.07544716272323432 -0.0007879060052934601 0.005742073034265531
 0.002458918598039378 0.03485254484448746 0.0024589185980392844 0.034852544844490095 -0.0007879060052934598 0.0057420730342655265 0.9958700688092151 -0.07544716272322101
4500000.0 0.9945980564913354 -0.08677414426463947 -0.0008091828384187261 0.008458179899761333 0.003105563173541509 0.03915798218244101 0.0031055631735413406 0.03915798218244257
 -0.0008091828384187252 0.008458179899761331 0.994598056491337 -0.0867741442646201 0.003105563173541243 0.0391579821824424 0.0031055631735412235 0.03915798218244555
 0.003105563173541507 0.03915798218244098 0.0031055631735412443 0.03915798218244242 0.9947833521850835 -0.08480668001812623 -0.0009944785321669553 0.0064907156532480305
 0.0031055631735413384 0.03915798218244254 0.003105563173541222 0.03915798218244554 -0.0009944785321669544 0.006490715653248029 0.9947833521850848 -0.0848066800181113
5000000.0 0.9933433866703293 -0.09632397185437591 -0.0009954647206782184 0.009432786116175321 0.0038260390251742766 0.04344559286910245 0.0038260390251740693 0.04344559286910418
 -0.0009954647206782176 0.009432786116175318 0.9933433866703311 -0.09632397185435437 0.0038260390251739474 0.043445592869103995 0.003826039025173925 0.043445592869107506
 0.0038260390251742735 0.04344559286910243 0.003826039025173949 0.04344559286910402 0.9935717893038027 -0.09414127839415012 -0.0012238673541517865 0.007250092655949493
 0.0038260390251740667 0.043445592869104155 0.0038260390251739214 0.043445592869107465 -0.0012238673541517854 0.00725009265594949 0.9935717893038044 -0.09414127839413358
5500000.0 0.9919602492870292 -0.10584517791187718 -0.001199641611092249 0.010418177261019486 0.004619696162031301 0.04771350032543122 0.0046196961620310496 0.047713500325433145
 -0.001199641611092248 0.010418177261019486 0.9919602492870317 -0.10584517791185358 0.004619696162030906 0.04771350032543295 0.004619696162030876 0.047713500325436795
 0.004619696162031298 0.047713500325431195 0.004619696162030907 0.04771350032543298 0.9922361817063317 -0.10344831190552159 -0.0014755740303944791 0.008021311254663778
 0.004619696162031047 0.0477135003254331 0.004619696162030872 0.04771350032543677 -0.0014755740303944791 0.008021311254663772 0.992236181706333 -0.10344831190550331
6000000.0 0.9904495544389528 -0.11533504835457249 -0.0014211983706393027 0.011415333652450246 0.005485821965842876 0.051959857351063704 0.005485821965842577 0.0519598573510658
 -0.0014211983706393023 0.011415333652450245 0.9904495544389554 -0.11533504835454675 0.005485821965842407 0.051959857351065605 0.0054858219658423715 0.0519598573510698
 0.0054858219658428745 0.05195985735106369 0.005485821965842408 0.05195985735106562 0.9907774089558261 -0.11272516801310889 -0.0017490528875122812 0.008805453310986514
 0.005485821965842574 0.05195985735106578 0.005485821965842369 0.05195985735106978 -0.0017490528875122803 0.008805453310986514 0.9907774089558281 -0.11272516801308903
6500000.0 0.9888122912824024 -0.12479090647955597 -0.0016595768226221007 0.012425209108067834 0.00642364277010956 0.05618284868574687 0.006423642770109211 0.05618284868574915
 -0.0016595768226220996 0.012425209108067834 0.9888122912824057 -0.12479090647952816 0.0064236427701090115 0.05618284868574895 0.0064236427701089725 0.0561828486857535
 0.006423642770109555 0.05618284868574682 0.0064236427701090115 0.05618284868574894 0.9891964269306552 -0.12196927052861016 -0.0020437124708748778 0.009603573157121924
 0.006423642770109207 0.05618284868574912 0.00642364277010897 0.05618284868575348 -0.002043712470874877 0.00960357315712192 0.9891964269306577 -0.1219692705285887
7000000.0 0.9870495261518994 -0.13421011589115184 -0.0019141772753849592 0.01344872894570275 0.007432325561742408 0.06038069347272756 0.0074323255617420045 0.060380693472730035
 -0.001914177275384958 0.013448728945702752 0.987049526151903 -0.13421011589112197 0.007432325561741776 0.06038069347272981 0.0074323255617417296 0.06038069347273472
 0.007432325561742403 0.06038069347272752 0.007432325561741779 0.06038069347272984 0.9874942659835724 -0.131178082455973 -0.002358917107057835 0.010416695510523776
 0.007432325561742001 0.06038069347273001 0.007432325561741727 0.0603806934727347 -0.0023589171070578347 0.010416695510523773 0.987494265983575 -0.1311780824559499
7500000.0 0.985162400549775 -0.14359008331700104 -0.0021843601464354313 0.0144867880820186 0.008510979798329817 0.06455164761749445 0.008510979798329361 0.06455164761749713
 -0.002184360146435429 0.014486788082018602 0.9851624005497789 -0.143590083316969 0.008510979798329092 0.06455164761749688 0.00851097979832904 0.06455164761750212
 0.008510979798329814 0.0645516476174944 0.008510979798329094 0.06455164761749689 0.9856720289741248 -0.14034910872306705 -0.002693988570784997 0.011245813488084467
 0.008510979798329352 0.06455164761749707 0.008510979798329035 0.0645516476175021 -0.0026939885707849952 0.011245813488084464 0.9856720289741276 -0.14034910872304235
8000000.0 0.9831521290134714 -0.1529282613060999 -0.0024694476809994205 0.015540249234493991 0.009658659333763612 0.06869400603580639 0.009658659333763092 0.06869400603580925
 -0.002469447680999418 0.015540249234493987 0.9831521290134758 -0.15292826130606585 0.009658659333762795 0.06869400603580901 0.009658659333762738 0.06869400603581464
 0.009658659333763607 0.06869400603580635 0.009658659333762797 0.06869400603580904 0.983730889181777 -0.14947989879716478 -0.0030482078493049604 0.012091886725558727
 0.009658659333763087 0.0686940060358092 0.009658659333762733 0.0686940060358146 -0.00304820784930496 0.012091886725558717 0.9837308891817803 -0.14947989879713847
8500000.0 0.9810199968684846 -0.16222215080279836 -0.002768725757717735 0.016609941231801 0.010874364444615939 0.07280610478550234 0.010874364444615358 0.07280610478550541
 -0.0027687257577177333 0.016609941231800998 0.98101999686849 -0.1622221508027623 0.010874364444615018 0.07280610478550514 0.010874364444614967 0.07280610478551118
 0.01087436444461593 0.0728061047855023 0.010874364444615021 0.07280610478550516 0.9816720881075871 -0.15856804917835612 -0.00342081699682014 0.012955839607358625
 0.010874364444615354 0.07280610478550537 0.010874364444614959 0.07280610478551112 -0.0034208169968201396 0.012955839607358617 0.9816720881075914 -0.15856804917832837
9000000.0 0.9787673578751874 -0.17146930359135817 -0.0030814457739172752 0.01769665743703315 0.012157043949364319 0.07688632307716636 0.012157043949363674 0.07688632307716964
 -0.003081445773917273 0.01769665743703315 0.9787673578751934 -0.17146930359132007 0.012157043949363292 0.07688632307716937 0.012157043949363235 0.07688632307717576
 0.012157043949364314 0.07688632307716634 0.012157043949363296 0.0768863230771694 0.9794969331725772 -0.16761120576561253 -0.003811021071306854 0.013838559611287382
 0.012157043949363667 0.07688632307716958 0.01215704394936323 0.07688632307717573 -0.003811021071306852 0.013838559611287375 0.9794969331725817 -0.16761120576558317
9500000.0 0.9763956317780284 -0.18066732460628213 -0.003406826602662567 0.018801154287657468 0.013505597412316417 0.08093308515931638 0.013505597412315698 0.08093308515931985
 -0.0034068266026625656 0.018801154287657464 0.9763956317780351 -0.18066732460624205 0.013505597412315285 0.08093308515931961 0.013505597412315218 0.08093308515932635
 0.01350559741231641 0.08093308515931635 0.013505597412315289 0.08093308515931964 0.9772067953211983 -0.17660706609082077 -0.004217990145832501 0.014740895772196033
 0.013505597412315695 0.08093308515931982 0.013505597412315213 0.08093308515932632 -0.0042179901458325 0.014740895772196028 0.9772067953212032 -0.17660706609078983
10000000.0 0.9739063017658344 -0.1898138741042499 -0.003744056613613939 0.01992414995547667 0.014918877423889074 0.08494486207439092 0.01491887742388828 0.08494486207439457
 -0.003744056613613938 0.019924149955476665 0.9739063017658416 -0.1898138741042078 0.014918877423887823 0.08494486207439435 0.01491887742388775 0.08494486207440141
 0.014918877423889063 0.08494486207439086 0.01491887742388783 0.08494486207439436 0.9748031065385125 -0.18555338141672673 -0.004640861386291815 0.015663657267953296
 0.01491887742388827 0.08494486207439453 0.014918877423887738 0.08494486207440134 -0.0046408613862918115 0.01566365726795329 0.9748031065385173 -0.18555338141669414
10500000.0 0.97130091185209 -0.19890666969412277 -0.004092295749587019 0.021066323129293244 0.01639569194874777 0.08892017328241926 0.016395691948746894 0.0889201732824231
 -0.004092295749587016 0.02106632312929325 0.9713009118520978 -0.19890666969407866 0.016395691948746398 0.08892017328242287 0.016395691948746318 0.0889201732824303
 0.016395691948747758 0.08892017328241922 0.0163956919487464 0.0889201732824229 0.9722873572898513 -0.19444795869534884 -0.0050787411873482475 0.016607612130519103
 0.01639569194874689 0.08892017328242309 0.016395691948746308 0.08892017328243026 -0.005078741187348245 0.016607612130519096 0.9722873572898569 -0.19444795869531473
11000000.0 0.9685810641841957 -0.20794348822211375 -0.004450677650624648 0.022228311922371156 0.017934806733213456 0.09285758814987603 0.017934806733212516 0.09285758814988015
 -0.004450677650624644 0.022228311922371156 0.9685810641842044 -0.20794348822206773 0.017934806733211964 0.09285758814987988 0.017934806733211895 0.09285758814988775
 0.01793480673321344 0.09285758814987596 0.017934806733211968 0.09285758814987989 0.9696610938918503 -0.20328866238405385 -0.005530707358278842 0.01757348608431099
 0.017934806733212502 0.0928575881498801 0.01793480673321188 0.09285758814988768 -0.005530707358278841 0.017573486084310978 0.969661093891857 -0.2032886623840183
11500000.0 0.9657484162907697 -0.21692216750985172 -0.004818311817355476 0.023410712906197666 0.019534947763291937 0.09675572730183192 0.01953494776329092 0.09675572730183626
 -0.004818311817355474 0.023410712906197662 0.9657484162907791 -0.2169221675098038 0.01953494776329033 0.09675572730183601 0.019534947763290254 0.09675572730184423
 0.01953494776329193 0.09675572730183188 0.019534947763290338 0.09675572730183606 0.9669259158237946 -0.21207341611710717 -0.005995811350380462 0.018561961513452945
 0.01953494776329091 0.0967557273018362 0.01953494776329024 0.09675572730184419 -0.0059958113503804575 0.018561961513452935 0.9669259158238016 -0.2120734161170701
12000000.0 0.962804678276068 -0.22584060794369043 -0.005194285805423031 0.02461408027146068 0.02119480376467666 0.10061326383611999 0.021194803764675557 0.10061326383612453
 -0.005194285805423026 0.024614080271460684 0.9628046782760783 -0.22584060794364055 0.021194803764674915 0.10061326383612429 0.021194803764674842 0.10061326383613288
 0.02119480376467665 0.10061326383611996 0.021194803764674922 0.10061326383612433 0.9640834729882461 -0.22080020423113375 -0.006473080517601346 0.019573676558903852
 0.02119480376467554 0.10061326383612447 0.02119480376467483 0.10061326383613282 -0.006473080517601341 0.019573676558903838 0.9640834729882534 -0.22080020423109514
12500000.0 0.9597516099705867 -0.23469677391423616 -0.005577667442822972 0.0258389251165804 0.02291302873611694 0.10442892439883322 0.02291302873611575 0.104428924398838
 -0.005577667442822968 0.0258389251165804 0.9597516099705976 -0.23469677391418434 0.022913028736115063 0.10442892439883777 0.022913028736114973 0.1044289243988467
 0.022913028736116923 0.10442892439883315 0.022913028736115063 0.10442892439883777 0.961135462929877 -0.2294670731435353 -0.00696152040211285 0.020609224345879258
 0.022913028736115736 0.10442892439883793 0.022913028736114963 0.10442892439884664 -0.0069615204021128505 0.020609224345879255 0.961135462929885 -0.22946707314349518
13000000.0 0.9565910180468224 -0.24348869510566695 -0.005967507062083485 0.027085714863570837 0.024688244507629166 0.10820149012105364 0.02468824450762789 0.1082014901210586
 -0.005967507062083484 0.027085714863570837 0.9565910180468347 -0.24348869510561327 0.02468824450762715 0.10820149012105842 0.024688244507627077 0.10820149012106778
 0.024688244507629145 0.10820149012105354 0.024688244507627143 0.1082014901210584 0.9580836280213699 -0.23807213258350798 -0.007460117036630636 0.021669152341411584
 0.024688244507627865 0.10820149012105851 0.02468824450762706 0.1082014901210677 -0.0074601170366306365 0.02166915234141157 0.9580836280213787 -0.23807213258346643
13500000.0 0.9533247531090484 -0.2522144676350051 -0.006362839739361489 0.028354872800460944 0.02651904331515517 0.11192979741727786 0.02651904331515381 0.11192979741728311
 -0.006362839739361482 0.028354872800460937 0.9533247531090612 -0.2522144676349497 0.02651904331515302 0.11192979741728291 0.02651904331515295 0.11192979741729264
 0.02651904331515515 0.1119297974172778 0.02651904331515303 0.11192979741728294 0.9549297526251171 -0.24661355667588547 -0.007967839255430093 0.022753961841341017
 0.026519043315153798 0.11192979741728305 0.026519043315152938 0.11192979741729257 -0.007967839255430086 0.022753961841341007 0.9549297526251267 -0.2466135566758425
14000000.0 0.9499547067658223 -0.26087225504207523 -0.006762687532704487 0.029646777748979402 0.02840399038343966 0.11561273864655391 0.028403990383438202 0.11561273864655935
 -0.006762687532704481 0.0296467777489794 0.9499547067658366 -0.2608722550420181 0.02840399038343738 0.11561273864655923 0.0284039903834373 0.11561273864656928
 0.02840399038343963 0.11561273864655382 0.028403990383437386 0.11561273864655926 0.9516756602392936 -0.2550895848785939 -0.008483641006175628 0.02386410758549778
 0.028403990383438195 0.11561273864655931 0.02840399038343729 0.11561273864656925 -0.008483641006175631 0.023864107585497774 0.9516756602393034 -0.25508958487854944
14500000.0 0.9464828086937321 -0.26946028913142406 -0.0071660617119407004 0.03096176385570426 0.030341626509102694 0.1192492626378661 0.03034162650910115 0.1192492626378718
 -0.007166061711940695 0.03096176385570426 0.9464828086937473 -0.269460289131365 0.030341626509100255 0.11924926263787164 0.030341626509100206 0.11924926263788219
 0.030341626509102666 0.119249262637866 0.03034162650910027 0.11924926263787171 0.9483232106366867 -0.26349852277504693 -0.00900646365489489 0.02499999749932685
 0.030341626509101136 0.11924926263787174 0.030341626509100193 0.11924926263788214 -0.009006463654894888 0.02499999749932684 0.9483232106366972 -0.2634985227750011
15000000.0 0.9429110237006586 -0.27797687066799964 -0.007571964972906852 0.03230012050440126 0.03233047063612231 0.12283837508180556 0.0323304706361207 0.12283837508181156
 -0.007571964972906843 0.03230012050440126 0.9429110237006745 -0.27797687066793875 0.032330470636119726 0.12283837508181138 0.03233047063611969 0.1228383750818223
 0.0323304706361223 0.12283837508180555 0.03233047063611974 0.12283837508181142 0.944874297004426 -0.2718387427233211 -0.009535238276673996 0.02616199255972243
 0.03233047063612068 0.1228383750818115 0.03233047063611968 0.12283837508182224 -0.009535238276673987 0.026161992559722413 0.9448742970044377 -0.27183874272327396
15500000.0 0.9392413487965696 -0.2864203699288822 -0.007979393629000681 0.03366209234682524 0.03436902241621359 0.1263791387910351 0.03436902241621189 0.12637913879104135
 -0.007979393629000677 0.03366209234682524 0.9392413487965867 -0.28642036992881964 0.034369022416210884 0.12637913879104123 0.034369022416210857 0.12637913879105253
 0.03436902241621357 0.12637913879103504 0.03436902241621089 0.12637913879104126 0.9413308430924962 -0.28010868436444114 -0.01006888792492684 0.02735040678238387
 0.03436902241621188 0.12637913879104126 0.03436902241621084 0.12637913879105248 -0.010068887924926837 0.02735040678238385 0.9413308430925084 -0.2801086843643927
16000000.0 0.9354758102795662 -0.2947892271138216 -0.00838733977335007 0.03504787944883869 0.036455764746889885 0.1298706738324983 0.03645576474688809 0.12987067383250483
 -0.008387339773350056 0.0350478794488387 0.9354758102795843 -0.29478922711375727 0.03645576474688702 0.1298706738325047 0.036455764746887 0.1298706738325164
 0.036455764746889864 0.12987067383249823 0.036455764746887026 0.1298706738325047 0.9376948003786122 -0.2883068549925607 -0.010606329872395575 0.02856550732757739
 0.03645576474688806 0.12987067383250467 0.036455764746886964 0.1298706738325163 -0.010606329872395572 0.028565507327577372 0.9376948003786253 -0.28830685499251074
16500000.0 0.9316164608445808 -0.3030819526177711 -0.008794793405221294 0.03645763754831317 0.03858916628031803 0.13331215753473596 0.038589166280316126 0.1333121575347427
 -0.008794793405221293 0.03645763754831316 0.9316164608446 -0.30308195261770504 0.03858916628031501 0.13331215753474263 0.03858916628031501 0.13331215753475478
 0.038589166280318006 0.1333121575347359 0.038589166280315015 0.13331215753474265 0.9339681452567294 -0.29643182979025173 -0.011146477817369528 0.02980751472079349
 0.03858916628031611 0.13331215753474265 0.03858916628031498 0.13331215753475464 -0.011146477817369521 0.02980751472079347 0.9339681452567433 -0.29643182979020044
17000000.0 0.9276653767217801 -0.31129712716900776 -0.009200744514640384 0.037891478420922234 0.04076768389642784 0.13670282437405004 0.04076768389642584 0.136702824374057
 -0.00920074451464038 0.037891478420922234 0.9276653767218002 -0.31129712716894004 0.04076768389642466 0.136702824374057 0.04076768389642467 0.13670282437406947
 0.04076768389642781 0.13670282437404996 0.04076768389642467 0.136702824374057 0.9301528762561017 -0.30448225193251266 -0.011688244048961436 0.031076603184426625
 0.04076768389642583 0.13670282437405698 0.04076768389642465 0.1367028243740694 -0.01168824404896144 0.031076603184426614 0.9301528762561161 -0.3044822519324599
17500000.0 0.9236246548513593 -0.31943340183679714 -0.009604185119571463 0.03934947034961253 0.04298976513410359 0.1400419657435998 0.042989765134101514 0.14004196574360708
 -0.009604185119571455 0.03934947034961252 0.9236246548513802 -0.31943340183672775 0.04298976513410027 0.14004196574360708 0.042989765134100306 0.14004196574361996
 0.04298976513410356 0.14004196574359973 0.0429897651341003 0.14004196574360714 0.9262510112974389 -0.3124568325634597 -0.012230541565650264 0.032372901076274496
 0.04298976513410147 0.14004196574360694 0.042989765134100286 0.1400419657436199 -0.012230541565650259 0.03237290107627448 0.9262510112974538 -0.3124568325634057
18000000.0 0.9194964101010366 -0.32748949791289184 -0.010004111250382393 0.04083163869324963 0.04525385057467034 0.14332892960982876 0.04525385057466817 0.14332892960983637
 -0.010004111250382385 0.04083163869324962 0.9194964101010585 -0.3274894979128207 0.04525385057466686 0.14332892960983631 0.045253850574666916 0.14332892960984964
 0.045253850574670317 0.14332892960982868 0.045253850574666875 0.14332892960983637 0.922264584992341 -0.320354350650002 -0.012772286141686278 0.03369649143035939
 0.045253850574668145 0.14332892960983626 0.0452538505746669 0.14332892960984958 -0.012772286141686273 0.033696491430359375 0.9222645849923571 -0.3203543506499468
18500000.0 0.9152827725321492 -0.3354642066714533 -0.010399524876724988 0.04233796654968209 0.047558376172285005 0.14656312006089353 0.04755837617228273 0.14656312006090133
 -0.010399524876724972 0.04233796654968208 0.9152827725321726 -0.33546420667138066 0.0475583761722814 0.14656312006090144 0.04755837617228144 0.14656312006091507
 0.04755837617228498 0.14656312006089345 0.04755837617228141 0.1465631200609015 0.918195645991778 -0.3281736527170851 -0.013312398336352983 0.03504741259531315
 0.047558376172282694 0.14656312006090125 0.047558376172281425 0.14656312006091504 -0.01331239833635298 0.035047412595313146 0.9181956459917947 -0.32817365271702836
19000000.0 0.9109858847198582 -0.3433563890122515 -0.010789435772364773 0.04386839550824624 0.04990177552625053 0.14974399675201072 0.04990177552624815 0.14974399675201885
 -0.010789435772364776 0.043868395508246234 0.9109858847198823 -0.3433563890121772 0.04990177552624675 0.14974399675201897 0.04990177552624684 0.14974399675203307
 0.049901775526250504 0.1497439967520107 0.049901775526246764 0.14974399675201897 0.9140462543889823 -0.33591365246934746 -0.013849805441488465 0.03642565896534161
 0.049901775526248124 0.14974399675201877 0.049901775526246785 0.14974399675203293 -0.013849805441488457 0.03642565896534159 0.9140462543889998 -0.3359136524692894
19500000.0 0.9066078991325298 -0.3511649749922181 -0.011172863313908137 0.045422826486549335 0.05228248209068592 0.1528710742528427 0.052282482090683466 0.1528710742528511
 -0.011172863313908125 0.04542282648654933 0.9066078991325558 -0.35116497499214244 0.052282482090682016 0.15287107425285126 0.052282482090682134 0.15287107425286578
 0.052282482090685894 0.1528710742528426 0.05228248209068204 0.15287107425285132 0.9098184791817062 -0.34357333030426196 -0.014383443363083797 0.03783118179859254
 0.052282482090683445 0.152871074252851 0.0522824820906821 0.15287107425286567 -0.014383443363083791 0.037831181798592524 0.9098184791817245 -0.3435733303042027
20000000.0 0.9021509755749743 -0.35888896325063585 -0.011548838209791572 0.04700112064621737 0.05469893131740544 0.1559439213022177 0.05469893131740291 0.15594392130222648
 -0.011548838209791563 0.04700112064621738 0.9021509755750011 -0.3588889632505584 0.05469893131740137 0.15594392130222662 0.05469893131740154 0.15594392130224158
 0.05469893131740541 0.15594392130221765 0.054698931317401396 0.15594392130222667 0.9055143957983777 -0.35115173272201355 -0.014912258433194747 0.03926389011759462
 0.05469893131740289 0.15594392130222642 0.05469893131740151 0.15594392130224147 -0.01491225843319474 0.03926389011759459 0.9055143957983973 -0.35115173272195327
20500000.0 0.8976172786997492 -0.3665274203333904 -0.011916404156314777 0.04860310038217437 0.05714956272827919 0.15896215997561675 0.0571495627282766 0.15896215997562585
 -0.011916404156314767 0.048603100382174365 0.8976172786997775 -0.3665274203333116 0.05714956272827499 0.15896215997562602 0.057149562728275205 0.1589621599756414
 0.05714956272827916 0.15896215997561666 0.057149562728275004 0.15896215997562607 0.9011360836922572 -0.3586479716375263 -0.015435209148821679 0.040723651686309634
 0.05714956272827655 0.15896215997562568 0.057149562728275156 0.15896215997564128 -0.015435209148821676 0.040723651686309606 0.9011360836922774 -0.35864797163746487
21000000.0 0.8930089755903675 -0.3740794799218559 -0.012274619417914735 0.050228550379935885 0.059632821913769986 0.1619254647709689 0.059632821913767294 0.16192546477097827
 -0.012274619417914733 0.050228550379935885 0.8930089755903967 -0.3740794799217756 0.05963282191376563 0.16192546477097852 0.05963282191376587 0.16192546477099432
 0.05963282191376998 0.1619254647709689 0.059632821913765656 0.16192546477097858 0.8966856240072844 -0.36606122360017096 -0.015951267834831123 0.042210294058250254
 0.05963282191376727 0.16192546477097822 0.05963282191376584 0.1619254647709942 -0.015951267834831123 0.04221029405825023 0.8966856240073058 -0.3660612236001083
21500000.0 0.8883282334197709 -0.3815443419720626 -0.012622558329288379 0.05187721873534306 0.062147162454754816 0.16483356161836893 0.062147162454752006 0.16483356161837862
 -0.01262255832928837 0.051877218735343046 0.8883282334198019 -0.3815443419719811 0.06214716245475034 0.16483356161837895 0.06214716245475063 0.16483356161839519
 0.062147162454754774 0.16483356161836885 0.06214716245475037 0.164833561618379 0.892165097318888 -0.37339072892677505 -0.01645942222840489 0.0437236056900547
 0.06214716245475197 0.1648335616183785 0.0621471624547506 0.16483356161839507 -0.01645942222840488 0.04372360569005467 0.8921650973189105 -0.3733907289267111
22000000.0 0.8835772171870646 -0.38892127176987457 -0.012959312717375689 0.05354881813114026 0.06469104776515155 0.1676862268193765 0.06469104776514868 0.16768622681938652
 -0.012959312717375682 0.05354881813114026 0.8835772171870967 -0.3889212717697914 0.06469104776514692 0.16768622681938689 0.06469104776514725 0.1676862268194035
 0.06469104776515151 0.16768622681937642 0.06469104776514693 0.16768622681938689 0.8875765814525993 -0.38063579075361514 -0.016958676982909877 0.04526333711488022
 0.06469104776514865 0.16768622681938644 0.06469104776514721 0.1676862268194034 -0.016958676982909877 0.04526333711488019 0.8875765814526226 -0.38063579075355014
22500000.0 0.8787580875350555 -0.396209598907926 -0.01328399324161014 0.05524302706480305 0.06726295285327313 0.17048328592157108 0.06726295285327016 0.17048328592158143
 -0.013283993241610123 0.05524302706480305 0.8787580875350883 -0.3962095989078413 0.06726295285326833 0.17048328592158177 0.06726295285326869 0.1704832859215988
 0.06726295285327308 0.17048328592157097 0.06726295285326833 0.17048328592158174 0.8829221493829262 -0.38779577401310095 -0.017448055089480226 0.04682920216997722
 0.06726295285327011 0.17048328592158124 0.06726295285326865 0.1704832859215987 -0.017448055089480222 0.04682920216997718 0.8829221493829503 -0.3877957740130347
23000000.0 0.8738729986507715 -0.4034087161900833 -0.01359573065122774 0.05695949112205463 0.06986136600022363 0.17322461253402413 0.0698613660002206 0.17322461253403482
 -0.013595730651227732 0.056959491122054624 0.8738729986508058 -0.40340871618999746 0.06986136600021875 0.17322461253403523 0.06986136600021917 0.17322461253405275
 0.06986136600022363 0.1732246125340241 0.06986136600021878 0.17322461253403532 0.8782038672145352 -0.39487010434086095 -0.01792659921499054 0.04842087927283143
 0.06986136600022057 0.17322461253403468 0.06986136600021912 0.1732246125340526 -0.017926599214990537 0.048420879272831396 0.8782038672145599 -0.3948701043407935
23500000.0 0.8689240962507243 -0.41051807846916666 -0.013893676958797903 0.058697824290565186 0.07248479035403212 0.17591012708931084 0.07248479035402898 0.17591012708932172
 -0.013893676958797898 0.058697824290565165 0.8689240962507598 -0.4105180784690794 0.07248479035402705 0.17591012708932227 0.07248479035402752 0.17591012708934015
 0.07248479035403205 0.1759101270893107 0.07248479035402708 0.17591012708932233 0.8734237922474019 -0.4018582669189171 -0.018393372955474493 0.050038012740314664
 0.07248479035402895 0.17591012708932163 0.07248479035402747 0.17591012708934 -0.018393372955474482 0.050038012740314636 0.8734237922474276 -0.40185826691884874
24000000.0 0.8639135156523161 -0.41753720142362993 -0.014177006529496966 0.060457610308410396 0.07513174543858553 0.17853979555761995 0.07513174543858232 0.17853979555763122
 -0.014177006529496945 0.060457610308410376 0.8639135156523533 -0.41753720142354134 0.07513174543858032 0.17853979555763183 0.07513174543858088 0.17853979555765012
 0.07513174543858551 0.1785397955576199 0.07513174543858037 0.17853979555763194 0.8685839711272247 -0.40875980526058064 -0.01884746200440507 0.051680214145360434
 0.0751317454385823 0.17853979555763114 0.07513174543858087 0.17853979555765012 -0.01884746200440506 0.05168021414536041 0.8685839711272515 -0.4087598052605112
24500000.0 0.8588433799324222 -0.42446566027882177 -0.014444917085988291 0.06223840404196661 0.07780076857677798 0.18111362811843804 0.0778007685767747 0.1811136281184497
 -0.01444491708598828 0.0622384040419666 0.8588433799324607 -0.42446566027873184 0.07780076857677265 0.1811136281184503 0.07780076857677327 0.18111362811846912
 0.07780076857677792 0.18111362811843792 0.07780076857677266 0.18111362811845033 0.8636864380820328 -0.4155743199426363 -0.019287975235598217 0.05334706370578026
 0.07780076857677466 0.18111362811844955 0.07780076857677322 0.18111362811846898 -0.019287975235598203 0.05334706370578024 0.8636864380820607 -0.4155743199425658
25000000.0 0.8537157981738355 -0.43130308847836496 -0.014696630629097917 0.06403973288804397 0.08049041622762576 0.18363167779517117 0.08049041622762243 0.18363167779518316
 -0.014696630629097896 0.06403973288804395 0.8537157981738756 -0.43130308847827403 0.08049041622762036 0.18363167779518388 0.08049041622762103 0.18363167779520304
 0.08049041622762573 0.1836316777951711 0.0804904162276204 0.18363167779518397 0.858733213245571 -0.4223014672902757 -0.019714045700832326 0.05503811169995382
 0.08049041622762237 0.18363167779518302 0.080490416227621 0.18363167779520298 -0.019714045700832312 0.0550381116999538 0.8587332132455998 -0.4223014672902042
25500000.0 0.848532863799929 -0.43804917631107637 -0.014931394274784291 0.06586109819519921 0.08319926523742217 0.18609403905794952 0.08319926523741873 0.1860940390579618
 -0.014931394274784272 0.06586109819519921 0.8485328637999697 -0.438049176310984 0.08319926523741661 0.1860940390579626 0.08319926523741732 0.18609403905798216
 0.08319926523742209 0.18609403905794938 0.08319926523741658 0.18609403905796257 0.8537263010677334 -0.42894095802014404 -0.02012483154258814 0.05675287990426585
 0.08319926523741866 0.18609403905796168 0.08319926523741727 0.18609403905798208 -0.020124831542588144 0.05675287990426582 0.8537263010677633 -0.42894095802007143
26000000.0 0.8432966529975713 -0.44470366949872575 -0.015148481008189883 0.06770197669932786 0.08592591400530364 0.18850084639971007 0.08592591400530014 0.18850084639972273
 -0.01514848100818987 0.06770197669932787 0.8432966529976134 -0.444703669498632 0.08592591400529793 0.1885008463997236 0.0859259140052988 0.18850084639974368
 0.08592591400530361 0.18850084639971001 0.08592591400529795 0.1885008463997236 0.8486676888119905 -0.4354925558467137 -0.020519516822608424 0.05849086304731492
 0.0859259140053001 0.18850084639972262 0.08592591400529873 0.18850084639974354 -0.020519516822608417 0.05849086304731489 0.8486676888120213 -0.43549255584664015
26500000.0 0.8380092232280484 -0.45126636774978585 -0.01534719035583441 0.06956182196880735 0.08866898356388703 0.1908522728905006 0.08866898356388349 0.19085227289051357
 -0.015347190355834385 0.06956182196880735 0.838009223228092 -0.45126636774969103 0.08866898356388123 0.19085227289051454 0.08866898356388213 0.190852272890535
 0.08866898356388699 0.19085227289050047 0.08866898356388125 0.19085227289051454 0.8435593451394667 -0.44195607605706905 -0.020897312267251767 0.06025153027608952
 0.08866898356388343 0.19085227289051343 0.08866898356388209 0.19085227289053489 -0.020897312267251764 0.0602515302760895 0.8435593451394984 -0.4419560760569945
27000000.0 0.8326726118254515 -0.45773712328417004 -0.015526848977261627 0.07144006585464796 0.09142711857589877 0.19314852871477278 0.09142711857589514 0.19314852871478608
 -0.015526848977261611 0.07144006585464795 0.8326726118254968 -0.45773712328407434 0.09142711857589289 0.1931485287147871 0.09142711857589385 0.193148528714808
 0.09142711857589869 0.19314852871477256 0.0914271185758929 0.1931485287147871 0.8384032187790637 -0.448331384059012 -0.021257455930872974 0.0620343266294887
 0.09142711857589507 0.19314852871478588 0.09142711857589379 0.19314852871480787 -0.021257455930872967 0.06203432662948868 0.8384032187790963 -0.4483313840589364
27500000.0 0.8272888346817405 -0.4641158393337798 -0.015686811177683356 0.073336119941303 0.09419898824796488 0.1953898596962502 0.09419898824796125 0.195389859696264
 -0.015686811177683346 0.07333611994130299 0.8272888346817866 -0.46411583933368267 0.09419898824795889 0.19538985969626504 0.09419898824795998 0.19538985969628647
 0.09419898824796484 0.1953898596962501 0.09419898824795889 0.19538985969626504 0.8332012372827547 -0.4546183939072352 -0.021599213778697158 0.06383867451475728
 0.0941989882479612 0.1953898596962639 0.0941989882479599 0.19538985969628628 -0.02159921377869715 0.06383867451475726 0.8332012372827889 -0.4546183939071588
28000000.0 0.8218598850174509 -0.47040246862350527 -0.01582645934337851 0.07524937699399659 0.09698328716295705 0.19757654581476644 0.09698328716295332 0.1975765458147805
 -0.0158264593433785 0.07524937699399659 0.8218598850174985 -0.4704024686234073 0.09698328716295095 0.19757654581478168 0.0969832871629521 0.19757654581480344
 0.09698328716295697 0.19757654581476627 0.09698328716295095 0.19757654581478165 0.8279553058649474 -0.46081706681211887 -0.02192188019087433 0.06566397518260907
 0.09698328716295333 0.1975765458147805 0.09698328716295206 0.19757654581480336 -0.02192188019087433 0.06566397518260905 0.8279553058649826 -0.4608170668120416
28500000.0 0.8163877322367917 -0.4765970118371346 -0.015945204301796932 0.07717921239863734 0.09977873603249549 0.19970889971926087 0.09977873603249177 0.19970889971927547
 -0.015945204301796887 0.0771792123986373 0.8163877322368409 -0.4765970118370355 0.0997787360324893 0.1997088997192766 0.09977873603249059 0.19970889971929887
 0.09977873603249542 0.19970889971926076 0.09977873603248931 0.1997088997192767 0.8226673063245933 -0.4669274096355192 -0.02222477838959783 0.06750961019702076
 0.0997787360324917 0.19970889971927527 0.09977873603249056 0.19970889971929884 -0.02222477838959782 0.06750961019702073 0.8226673063246294 -0.466927409635441
29000000.0 0.8108743208656763 -0.4826995160724252 -0.016042485608492193 0.07912498559060673 0.10258408237140067 0.20178726524092183 0.10258408237139688 0.2017872652409367
 -0.016042485608492182 0.07912498559060668 0.8108743208657269 -0.48269951607232514 0.10258408237139434 0.20178726524093796 0.10258408237139577 0.20178726524096074
 0.10258408237140058 0.2017872652409217 0.1025840823713944 0.20178726524093804 0.8173390960485333 -0.47294947337771714 -0.022507260791348384 0.06937494289589732
 0.10258408237139682 0.20178726524093663 0.10258408237139571 0.2017872652409606 -0.02250726079134837 0.06937494289589728 0.8173390960485704 -0.4729494733776381
29500000.0 0.8053215695710467 -0.4887100732893899 -0.01611777176316219 0.08108604146893142 0.10539810109605018 0.20381201591024195 0.10539810109604636 0.20381201591025727
 -0.016117771763162186 0.0810860414689314 0.8053215695710984 -0.4887100732892886 0.10539810109604378 0.20381201591025855 0.10539810109604528 0.20381201591028172
 0.10539810109605015 0.20381201591024192 0.10539810109604382 0.2038120159102586 0.8119725070943703 -0.47888335165948764 -0.02276870928648508 0.07125931983902807
 0.10539810109604632 0.20381201591025713 0.10539810109604524 0.2038120159102816 -0.022768709286485077 0.07125931983902803 0.8119725070944084 -0.47888335165940776
30000000.0 0.7997313702596885 -0.49462881875564346 -0.016170560357211216 0.0830617117925759 0.10821959504875342 0.2057835534815467 0.10821959504874959 0.20578355348156244
 -0.0161705603572112 0.08306171179257589 0.799731370259742 -0.4946288187555413 0.10821959504874698 0.20578355348156382 0.1082195950487486 0.20578355348158744
 0.10821959504875342 0.2057835534815467 0.10821959504874705 0.20578355348156396 0.806569345351023 -0.4847291792030484 -0.02300853544854483 0.07316207223997959
 0.10821959504874952 0.2057835534815623 0.10821959504874852 0.2057835534815873 -0.023008535448544806 0.07316207223997953 0.8065693453510621 -0.48472917920296765
30500000.0 0.7941055872545835 -0.5004559294924448 -0.016200378155365368 0.08505131655581598 0.11104739545038272 0.2077023064683277 0.11104739545037885 0.20770230646834373
 -0.01620037815536535 0.08505131655581594 0.7941055872546384 -0.5004559294923417 0.11104739545037617 0.2077023064683452 0.11104739545037794 0.20770230646836926
 0.11104739545038265 0.2077023064683276 0.11104739545037622 0.20770230646834525 0.8011313897749524 -0.4904871303154241 -0.023226180675733326 0.07508251737879389
 0.1110473954503788 0.20770230646834364 0.1110473954503779 0.20770230646836918 -0.023226180675733316 0.07508251737879387 0.8011313897749924 -0.49048713031534263
31000000.0 0.7884460565467164 -0.506191622724856 -0.01620678111397207 0.08705416533988297 0.11388036228361924 0.20956872869250004 0.11388036228361527 0.20956872869251642
 -0.016206781113972068 0.08705416533988296 0.7884460565467726 -0.5061916227247519 0.11388036228361265 0.20956872869251808 0.11388036228361446 0.20956872869254253
 0.11388036228361918 0.20956872869249998 0.11388036228361267 0.20956872869251816 0.7956603916999407 -0.49615741737756375 -0.02342111626719511 0.07701995999258919
 0.11388036228361523 0.20956872869251633 0.1138803622836144 0.2095687286925424 -0.023421116267195095 0.07701995999258915 0.7956603916999815 -0.49615741737748126
31500000.0 0.7827545851201468 -0.5118361543392288 -0.01618935433869718 0.08906955863829166 0.1167173846092663 0.21138329785048235 0.11671738460926231 0.21138329785049917
 -0.01618935433869717 0.08906955863829163 0.7827545851202047 -0.5118361543391241 0.11671738460925965 0.21138329785050086 0.11671738460926158 0.2113832978505258
 0.11671738460926623 0.21138329785048227 0.11671738460925965 0.2113832978505009 0.7901580742181876 -0.5017402893423214 -0.023592843436737183 0.07897369364138267
 0.11671738460926223 0.21138329785049903 0.1167173846092615 0.21138329785052562 -0.023592843436737163 0.07897369364138263 0.7901580742182297 -0.5017402893422381
32000000.0 0.777032950348049 -0.5173898173510194 -0.01614771198439859 0.09109678915348964 0.11955738081816575 0.2131465140987789 0.11955738081816175 0.21314651409879615
 -0.01614771198439857 0.09109678915348962 0.7770329503481079 -0.5173898173509136 0.11955738081815903 0.21314651409879787 0.1195573808181611 0.21314651409882318
 0.11955738081816569 0.2131465140987788 0.11955738081815905 0.2131465140987979 0.7846261316304017 -0.5072360302442114 -0.023740893266750763 0.0809430020466802
 0.1195573808181617 0.21314651409879598 0.11955738081816103 0.21314651409882307 -0.023740893266750752 0.08094300204668016 0.7846261316304451 -0.5072360302441273
32500000.0 0.7712828994573536 -0.5228529403857168 -0.016081497100005813 0.09313514306268496 0.1223992988213167 0.21485889866153027 0.12239929882131267 0.2148588986615478
 -0.016081497100005792 0.09313514306268496 0.7712828994574141 -0.52285294038561 0.12239929882130987 0.2148588986615497 0.12239929882131212 0.21485889866157548
 0.12239929882131662 0.21485889866153016 0.1223992988213099 0.21485889866154972 0.7790662289624795 -0.5126449577236286 -0.02386482660513065 0.0829271604005952
 0.12239929882131266 0.21485889866154775 0.12239929882131204 0.21485889866157531 -0.023864826605130632 0.08292716040059514 0.7790662289625238 -0.5126449577235439
33000000.0 0.7655061490595546 -0.5282258861754722 -0.01599038142127012 0.09518390125092512 0.125242116180848 0.21652099246228795 0.12524211618084394 0.21652099246230594
 -0.01599038142127012 0.09518390125092512 0.7655061490596163 -0.5282258861753645 0.12524211618084116 0.216520992462308 0.12524211618084355 0.21652099246233417
 0.12524211618084793 0.2165209924622879 0.12524211618084122 0.216520992462308 0.7734800015463168 -0.5179674215680252 -0.023964233908031336 0.0849254366434767
 0.12524211618084394 0.21652099246230586 0.12524211618084347 0.21652099246233406 -0.023964233908031336 0.08492543664347665 0.7734800015463622 -0.5179674215679397
33500000.0 0.7597043847451876 -0.5335090500738017 -0.01587406511427115 0.09724234050971095 0.12808484018453173 0.21813335478206017 0.1280848401845277 0.2181333547820786
 -0.01587406511427112 0.09724234050971092 0.7597043847452506 -0.5335090500736932 0.12808484018452485 0.21813335478208065 0.12808484018452734 0.2181333547821073
 0.12808484018453162 0.21813335478206003 0.12808484018452487 0.21813335478208065 0.7678690546622419 -0.5232038022723293 -0.02403873503132435 0.08693709270823681
 0.12808484018452762 0.2181333547820785 0.12808484018452726 0.21813335478210713 -0.024038735031324338 0.08693709270823675 0.7678690546622883 -0.523203802272243
34000000.0 0.7538792607394585 -0.5387028585905489 -0.01573227647257289 0.09930973469963349 0.13092650786654678 0.21969656194547274 0.1309265078665427 0.21969656194549153
 -0.015732276472572884 0.09930973469963346 0.7538792607395229 -0.5387028585904398 0.13092650786653992 0.21969656194549378 0.13092650786654256 0.21969656194552079
 0.13092650786654667 0.21969656194547263 0.13092650786653992 0.21969656194549378 0.7622349632405201 -0.5283545096206897 -0.024087978973633507 0.08896138572977252
 0.1309265078665426 0.2196965619454914 0.13092650786654245 0.21969656194552065 -0.024087978973633517 0.08896138572977247 0.7622349632405673 -0.5283545096206026
34500000.0 0.7480323996164684 -0.5438077679490868 -0.01556477157091968 0.10138535587572181 0.13376618597721504 0.22121120603669783 0.13376618597721096 0.22121120603671704
 -0.015564771570919674 0.1013853558757218 0.7480323996165343 -0.543807767948977 0.13376618597720807 0.22121120603671926 0.13376618597721093 0.22121120603674688
 0.13376618597721496 0.22121120603669778 0.13376618597720813 0.22121120603671934 0.7565792716193747 -0.5334199812914447 -0.02411164357382491 0.09099756921807799
 0.13376618597721093 0.22121120603671698 0.13376618597721088 0.22121120603674674 -0.02411164357382491 0.09099756921807794 0.7565792716194231 -0.5334199812913571
35000000.0 0.7421653920694669 -0.5488242626675602 -0.015371333878344263 0.1034684753743792 0.13660297090442763 0.22267789364660617 0.13660297090442364 0.2226778936466258
 -0.01537133387834424 0.10346847537437917 0.742165392069534 -0.5488242626674495 0.13660297090442067 0.22267789364662813 0.13660297090442372 0.2226778936466561
 0.13660297090442755 0.22267789364660603 0.13660297090442075 0.22267789364662818 0.7509034933569396 -0.5384006814870159 -0.024109435165815978 0.09304489419383312
 0.13660297090442358 0.2226778936466256 0.1366029709044236 0.22267789364665594 -0.02410943516581598 0.09304489419383305 0.7509034933569889 -0.5384006814869278
35500000.0 0.7362797967345681 -0.5537528541657842 -0.01515177383353566 0.10555836486097216 0.1394359885494723 0.22409724465242203 0.1394359885494683 0.22409724465244207
 -0.015151773833535644 0.10555836486097217 0.7362797967346371 -0.5537528541656732 0.13943598854946546 0.2240972446524446 0.13943598854946856 0.22409724465247294
 0.13943598854947226 0.22409724465242192 0.13943598854946546 0.22409724465244454 0.7452091110945798 -0.5432970995902573 -0.024081088193546155 0.09510261028544292
 0.1394359885494682 0.2240972446524419 0.13943598854946845 0.22409724465247277 -0.02408108819354615 0.09510261028544288 0.7452091110946301 -0.5432970995901681
36000000.0 0.7303771400653644 -0.5585940793992354 -0.014905928385277436 0.1076542973373098 0.1422643941599447 0.22546989103097903 0.14226439415994072 0.22546989103099946
 -0.014905928385277429 0.10765429733730977 0.7303771400654346 -0.5585940793991235 0.14226439415993777 0.22546989103100207 0.1422643941599411 0.2254698910310309
 0.1422643941599446 0.2254698910309789 0.14226439415993783 0.22546989103100215 0.7394975764690069 -0.5481097488486036 -0.024026364788918737 0.0971699667866759
 0.14226439415994063 0.22546989103099932 0.14226439415994105 0.22546989103103082 -0.02402636478891872 0.09716996678667585 0.7394975764690586 -0.548109748848514
36500000.0 0.7244589162558932 -0.5633484995214078 -0.014633660500721903 0.10975554810842228 0.14508737212240222 0.22679647570650904 0.14508737212239836 0.22679647570653005
 -0.01463366050072188 0.10975554810842225 0.7244589162559649 -0.5633484995212951 0.14508737212239528 0.2267964757065326 0.1450873721223988 0.22679647570656192
 0.1450873721224022 0.226796475706509 0.14508737212239534 0.2267964757065327 0.7337703100706546 -0.5528391650872098 -0.023945054315482522 0.09924621367422258
 0.14508737212239825 0.22679647570652986 0.14508737212239872 0.22679647570656175 -0.023945054315482488 0.09924621367422251 0.7337703100707073 -0.5528391650871197
37000000.0 0.7185265872094377 -0.5680166985756426 -0.014334858644213194 0.11186139570820493 0.14790413571737535 0.22807765143373568 0.14790413571737138 0.22807765143375694
 -0.014334858644213163 0.11186139570820489 0.718526587209511 -0.5680166985755294 0.14790413571736838 0.2280776514337597 0.14790413571737202 0.22807765143378933
 0.1479041357173752 0.2280776514337355 0.1479041357173684 0.22807765143375971 0.728028701445798 -0.5574859054520944 -0.023836972880572287 0.1013306025846546
 0.1479041357173713 0.2280776514337568 0.14790413571737196 0.22807765143378927 -0.02383697288057228 0.10133060258465458 0.7280287014458517 -0.5574859054520037
37500000.0 0.7125815825506725 -0.57259928221739 -0.014009436229311308 0.11397112278364736 0.1507139268393066 0.22931407971688836 0.1507139268393026 0.22931407971690992
 -0.014009436229311284 0.11397112278364734 0.7125815825507468 -0.5725992822172759 0.15071392683929957 0.2293140797169128 0.15071392683930337 0.22931407971694287
 0.15071392683930648 0.22931407971688816 0.15071392683929957 0.22931407971691278 0.7222741091399328 -0.5620505471841636 -0.023701962818570593 0.10342238775041891
 0.15071392683930251 0.22931407971690976 0.15071392683930326 0.2293140797169427 -0.023701962818570597 0.1034223877504189 0.7222741091399875 -0.5620505471840722
38000000.0 0.7066252996787051 -0.5770968764677029 -0.013657331046603691 0.11608401693750933 0.15351601568393608 0.23050642976511412 0.15351601568393225 0.23050642976513624
 -0.013657331046603698 0.11608401693750929 0.7066252996787808 -0.5770968764675884 0.15351601568392917 0.23050642976513913 0.15351601568393328 0.23050642976516983
 0.153516015683936 0.23050642976511407 0.15351601568392922 0.23050642976513921 0.716507860779992 -0.5665336864248417 -0.023539892147889728 0.10552082689464612
 0.15351601568393214 0.23050642976513613 0.15351601568393314 0.23050642976516963 -0.02353989214788971 0.10552082689464606 0.7165078607800479 -0.56653368642475
38500000.0 0.7006591038586117 -0.5815101264986412 -0.01327850466981722 0.11819937152943696 0.1563097004055891 0.2316553774846197 0.15630970040558528 0.23165537748464224
 -0.013278504669817217 0.11819937152943696 0.7006591038586888 -0.581510126498526 0.15630970040558215 0.23165537748464524 0.15630970040558645 0.2316553774846763
 0.15630970040558906 0.23165537748461962 0.15630970040558223 0.23165537748464532 0.7107312531929993 -0.5709359370538923 -0.023350654004203615 0.10762518208468595
 0.15630970040558526 0.2316553774846421 0.1563097004055863 0.23165537748467613 -0.023350654004203622 0.10762518208468588 0.7107312531930562 -0.5709359370537999
39000000.0 0.6946843283491173 -0.5858396954511174 -0.01287294184266817 0.12031648643564354 0.1590943067467615 0.23276160450775488 0.15909430674675767 0.23276160450777778
 -0.012872941842668146 0.12031648643564351 0.694684328349196 -0.5858396954510019 0.15909430674675468 0.23276160450778094 0.15909430674675903 0.23276160450781233
 0.15909430674676142 0.23276160450775468 0.1590943067467547 0.23276160450778097 0.7049455525588372 -0.5752579295598905 -0.023134166052386912 0.10973472054441422
 0.1590943067467576 0.23276160450777766 0.15909430674675892 0.23276160450781222 -0.023134166052386905 0.1097347205444142 0.7049455525588949 -0.5752579295597973
39500000.0 0.6887022745641205 -0.5900862632856025 -0.012440649848805113 0.12243466876738932 0.16186918764232802 0.23382579725912492 0.1618691876423242 0.2338257972591482
 -0.012440649848805094 0.12243466876738927 0.6887022745642003 -0.5900862632854865 0.16186918764232114 0.23382579725915145 0.16186918764232577 0.23382579725918337
 0.16186918764232786 0.23382579725912472 0.16186918764232122 0.23382579725915154 0.699151994594854 -0.5795003099436864 -0.0228903698795375 0.11184871542547063
 0.16186918764232414 0.23382579725914812 0.16186918764232563 0.23382579725918318 -0.022890369879537506 0.11184871542547059 0.6991519945949128 -0.5795003099435928
40000000.0 0.6827142122658335 -0.5942505256659883 -0.011981657867116089 0.12455323354860894 0.1646337228006265 0.23484864605870828 0.1646337228006228 0.2348486460587321
 -0.011981657867116073 0.12455323354860887 0.682714212265915 -0.5942505256658718 0.16463372280061966 0.23484864605873537 0.16463372280062455 0.23484864605876773
 0.1646337228006264 0.23484864605870823 0.16463372280061978 0.2348486460587355 0.6933517847700984 -0.5836637386550806 -0.02261923037137972 0.11396644653769872
 0.1646337228006227 0.23484864605873193 0.16463372280062444 0.2348486460587676 -0.022619230371379702 0.11396644653769866 0.6933517847701584 -0.5836637386549867
40500000.0 0.6767213797873638 -0.5983331928767942 -0.011496016314583558 0.1266715043531299 0.16738731826359485 0.23583084426185097 0.16738731826359116 0.23583084426187514
 -0.011496016314583524 0.12667150435312988 0.6767213797874463 -0.5983331928766769 0.1673873182635881 0.23583084426187864 0.1673873182635931 0.23583084426191128
 0.16738731826359476 0.23583084426185086 0.16738731826358816 0.2358308442618787 0.68754609854704 -0.5877488895628284 -0.022320735074258708 0.1160872010391618
 0.16738731826359116 0.23583084426187503 0.167387318263593 0.23583084426191114 -0.02232073507425869 0.11608720103916174 0.6875460985471008 -0.5877488895627339
41000000.0 0.670724984282629 -0.6023349887738109 -0.01098379617878107 0.128788813902022 0.17012940594806053 0.23677308743591355 0.170129405948057 0.23677308743593828
 -0.010983796178781062 0.12878881390202196 0.6707249842827128 -0.602334988773693 0.1701294059480538 0.23677308743594178 0.1701294059480591 0.23677308743597492
 0.17012940594806042 0.23677308743591347 0.17012940594805387 0.23677308743594183 0.6817360816486996 -0.591756448957994 -0.021994893544850482 0.11821027408620267
 0.17012940594805692 0.2367730874359381 0.17012940594805898 0.23677308743597475 -0.021994893544850482 0.1182102740862026 0.6817360816487615 -0.591756448957899
41500000.0 0.6647262020015794 -0.6062566497681741 -0.010445088342014127 0.13090450462169628 0.17285944317020135 0.23767607257325835 0.17285944317019789 0.2376760725732834
 -0.010445088342014125 0.13090450462169628 0.6647262020016647 -0.6062566497680558 0.17285944317019472 0.2376760725732871 0.17285944317020027 0.23767607257332068
 0.17285944317020124 0.2376760725732582 0.17285944317019475 0.2376760725732871 0.6759228503491883 -0.5956871145905793 -0.02164173668962194 0.12033496944409894
 0.17285944317019777 0.2376760725732833 0.1728594431702001 0.2376760725733205 -0.021641736689621893 0.12033496944409887 0.6759228503492511 -0.5956871145904838
42000000.0 0.658726178588754 -0.6100989238437755 -0.009880002899015994 0.13301792916345273 0.1755769121551147 0.23854049734018112 0.17557691215511134 0.23854049734020671
 -0.009880002899015992 0.13301792916345268 0.6587261785888404 -0.6100989238436568 0.17557691215510812 0.23854049734021035 0.17557691215511387 0.23854049734024432
 0.17557691215511462 0.23854049734018107 0.1755769121551082 0.23854049734021043 0.670107491785725 -0.5995415947392729 -0.021261316095986246 0.12246060005894775
 0.17557691215511123 0.23854049734020658 0.17557691215511378 0.23854049734024424 -0.021261316095986246 0.12246060005894771 0.6701074917857894 -0.5995415947391772
42500000.0 0.6527260294032835 -0.613862569607839 -0.00928866847001542 0.1351284508852393 0.1782813195333493 0.23936705936132005 0.1782813195333459 0.23936705936134595
 -0.009288668470015393 0.1351284508852393 0.6527260294033718 -0.6138625696077199 0.1782813195333428 0.23936705936134983 0.1782813195333487 0.2393670593613842
 0.17828131953334914 0.2393670593613199 0.17828131953334278 0.2393670593613498 0.6642910642902765 -0.6033206073140824 -0.02085370335700729 0.12458648859148011
 0.17828131953334583 0.23936705936134586 0.17828131953334858 0.23936705936138403 -0.020853703357007276 0.12458648859148008 0.6642910642903417 -0.6033206073139861
43000000.0 0.6467268398585231 -0.6175483553744219 -0.008671231510900046 0.1372354442964515 0.18097219582617122 0.24015645553900558 0.18097219582616797 0.24015645553903192
 -0.00867123151090005 0.13723544429645146 0.6467268398586125 -0.6175483553743024 0.18097219582616486 0.24015645553903597 0.180972195826171 0.24015645553907072
 0.18097219582617113 0.2401564555390055 0.1809721958261649 0.24015645553903597 0.658474597739039 -0.6070248789915457 -0.020418989391414958 0.12671196791357278
 0.18097219582616786 0.24015645553903184 0.18097219582617088 0.2401564555390706 -0.020418989391414965 0.12671196791357275 0.6584745977391054 -0.607024878991449
43500000.0 0.6407296657795681 -0.6211570582805233 -0.008027855622107848 0.1393382954666502 0.18364909492125214 0.24090938140695745 0.1836490949212489 0.24090938140698417
 -0.00802785562210781 0.13933829546665016 0.6407296657796591 -0.6211570582804035 0.18364909492124576 0.24090938140698817 0.1836490949212522 0.24090938140702348
 0.18364909492125206 0.2409093814069573 0.18364909492124581 0.24090938140698823 0.652659093918065 -0.6106551443821556 -0.019957283760603357 0.12883638156827965
 0.1836490949212488 0.24090938140698404 0.1836490949212521 0.24090938140702328 -0.019957283760603323 0.12883638156827956 0.6526590939181321 -0.6106551443820584
44000000.0 0.6347355337769852 -0.6246894634344324 -0.007358720857783527 0.14143640239912625 0.18631159354038107 0.24162653051767433 0.18631159354037796 0.24162653051770158
 -0.007358720857783509 0.14143640239912617 0.6347355337770776 -0.6246894634343125 0.18631159354037488 0.2416265305177057 0.18631159354038157 0.24162653051774138
 0.1863115935403809 0.2416265305176742 0.18631159354037502 0.24162653051770588 0.6468455269033945 -0.6142121452295632 -0.019468713984191557 0.13095908419425417
 0.18631159354037788 0.24162653051770142 0.1863115935403815 0.24162653051774124 -0.019468713984191553 0.1309590841942541 0.6468455269034628 -0.6142121452294658
44500000.0 0.6287454416351613 -0.6281463630958877 -0.006664023036649318 0.1435291753702807 0.18895929070072565 0.242308593862825 0.18895929070072265 0.24230859386285258
 -0.006664023036649288 0.14352917537028068 0.6287454416352545 -0.6281463630957672 0.18895929070071954 0.24230859386285686 0.18895929070072645 0.24230859386289288
 0.18895929070072554 0.24230859386282494 0.18895929070071962 0.24230859386285694 0.6410348434541507 -0.6176966296410908 -0.018953424855637578 0.13307944191548104
 0.18895929070072262 0.24230859386285256 0.18895929070072634 0.24230859386289277 -0.018953424855637578 0.13307944191548096 0.6410348434542198 -0.6176966296409929
45000000.0 0.6227603587137532 -0.6315285558875707 -0.0059439730559462025 0.145616037235824 0.1915918071710776 0.24295625932589526 0.19159180717107474 0.24295625932592332
 -0.005943973055946171 0.14561603723582392 0.6227603587138478 -0.6315285558874498 0.19159180717107158 0.24295625932592765 0.19159180717107877 0.24295625932596407
 0.1915918071710775 0.24295625932589512 0.1915918071710716 0.24295625932592765 0.6352279634171155 -0.6211093513490187 -0.018411577759307473 0.1351968326972691
 0.19159180717107463 0.24295625932592313 0.19159180717107865 0.24295625932596393 -0.01841157775930747 0.13519683269726898 0.635227963417186 -0.6211093513489205
45500000.0 0.6167812263607856 -0.6348368460374206 -0.0051987962097147025 0.14769642370482663 0.19420878492444513 0.24357021116631924 0.19420878492444238 0.24357021116634772
 -0.00519879620971467 0.1476964237048266 0.6167812263608816 -0.6348368460372995 0.1942087849244393 0.24357021116635222 0.19420878492444665 0.24357021116638894
 0.19420878492444504 0.24357021116631908 0.19420878492443935 0.24357021116635225 0.6294257801413851 -0.6244510690020892 -0.01784334999031323 0.1373106466694924
 0.19420878492444235 0.24357021116634764 0.19420878492444654 0.24357021116638888 -0.01784334999031324 0.1373106466694924 0.6294257801414563 -0.6244510690019907
46000000.0 0.6108089583360219 -0.6380720426512027 -0.004428731512597725 0.14976978358267762 0.19680988658826817 0.24415112953428522 0.19680988658826556 0.24415112953431412
 -0.004428731512597715 0.14976978358267762 0.6108089583361189 -0.6380720426510814 0.19680988658826248 0.24415112953431867 0.19680988658827014 0.24415112953435594
 0.19680988658826806 0.24415112953428508 0.1968098865882625 0.2441511295343187 0.6236291609017733 -0.6277225454866183 -0.01724893407834812 0.13942028641809007
 0.19680988658826543 0.24415112953431392 0.19680988658826998 0.2441511295343557 -0.01724893407834811 0.13942028641808998 0.6236291609018455 -0.6277225454865193
46500000.0 0.6048444412433032 -0.6412349590147485 -0.003634031030262314 0.1518355789840265 0.19939479489345951 0.24469969001538383 0.19939479489345688 0.244699690015413
 -0.003634031030262282 0.15183557898402647 0.6048444412434014 -0.6412349590146262 0.1993947948934538 0.24469969001541772 0.1993947948934617 0.24469969001545533
 0.1993947948934594 0.2446996900153837 0.19939479489345388 0.2446996900154178 0.617838947329706 -0.6309245472765834 -0.016628537116664382 0.1415251672458587
 0.19939479489345688 0.24469969001541297 0.19939479489346154 0.24469969001545516 -0.016628537116664385 0.14152516724585865 0.6178389473297791 -0.630924547276484
47000000.0 0.5988885349706214 -0.6443264119252381 -0.0028149592174555073 0.153893285516797 0.2019632121233964 0.24521656320424398 0.20196321212339396 0.24521656320427362
 -0.0028149592174554474 0.153893285516797 0.5988885349707215 -0.6443264119251164 0.20196321212339097 0.24521656320427843 0.2019632121233991 0.24521656320431637
 0.2019632121233962 0.24521656320424373 0.201963212123391 0.24521656320427848 0.6120559558504226 -0.6340578438120321 -0.01598238009725561 0.1436247174035879
 0.2019632121233939 0.24521656320427354 0.20196321212339893 0.24521656320431623 -0.015982380097255614 0.14362471740358784 0.6120559558504971 -0.6340578438119326
47500000.0 0.5929420731367568 -0.6473472210508925 -0.001971792264628486 0.15594239243837163 0.2045148595639147 0.2457024143062841 0.2045148595639124 0.24570241430631415
 -0.001971792264628492 0.1559423924383716 0.5929420731368579 -0.64734722105077 0.20451485956390938 0.24570241430631914 0.2045148595639178 0.24570241430635748
 0.20451485956391463 0.24570241430628395 0.20451485956390944 0.24570241430631914 0.6062809781253564 -0.6371232069051221 -0.015310697253227016 0.14571837829259818
 0.20451485956391238 0.2457024143063141 0.2045148595639177 0.24570241430635736 -0.015310697253227038 0.14571837829259812 0.6062809781254316 -0.6371232069050222
48000000.0 0.5870058635433771 -0.650298208318391 -0.0011048174539866158 0.15798240278505019 0.20704947695528314 0.2461579027666945 0.20704947695528103 0.2461579027667251
 -0.001104817453986615 0.15798240278505016 0.5870058635434794 -0.6502982083182683 0.20704947695527792 0.24615790276673014 0.20704947695528667 0.2461579027667689
 0.2070494769552831 0.24615790276669441 0.20704947695527803 0.24615790276673014 0.600514781498652 -0.6401214101730981 -0.014613735409260245 0.1478056046397538
 0.20704947695528086 0.24615790276672492 0.20704947695528653 0.2461579027667687 -0.014613735409260262 0.14780560463975376 0.6005147814987281 -0.6401214101729977
48500000.0 0.5810806886315679 -0.6531801973273493 -0.00021433252574674138 0.16001283347588688 0.20956682194706727 0.24658368192575572 0.2095668219470653 0.2465836819257867
 -0.00021433252574672547 0.16001283347588688 0.5810806886316717 -0.6531801973272269 0.20956682194706236 0.2465836819257919 0.20956682194707127 0.2465836819258309
 0.20956682194706724 0.24658368192575567 0.2095668219470624 0.2465836819257919 0.5947581094468256 -0.6430532284974861 -0.013891753341003303 0.1498858646460203
 0.20956682194706525 0.2465836819257866 0.20956682194707119 0.24658368192583083 -0.013891753341003314 0.1498858646460202 0.5947581094469029 -0.6430532284973857
49000000.0 0.5751673059418144 -0.6559940127911481 0.0006993549446880477 0.1620332153920099 0.21206666955672623 0.24698039869959398 0.2120666695567244 0.24698039869962546
 0.0006993549446880984 0.16203321539200988 0.5751673059419194 -0.6559940127910251 0.2120666695567214 0.2469803986996306 0.21206666955673073 0.24698039869967017
 0.2120666695567261 0.24698039869959384 0.2120666695567215 0.24698039869963068 0.589011682030649 -0.6459194375087846 -0.013145021144145473 0.15195864010964297
 0.21206666955672424 0.2469803986996253 0.21206666955673054 0.24698039869967003 -0.013145021144145473 0.15195864010964297 0.5890116820307273 -0.6459194375086837
49500000.0 0.5692664485765244 -0.6587404800034105 0.0016359281579972902 0.16404309343251924 0.21454881163271639 0.2473486932854709 0.21454881163271466 0.24734869328550277
 0.0016359281579973286 0.16404309343251916 0.5692664485766304 -0.6587404800032874 0.21454881163271167 0.24734869328550804 0.21454881163272121 0.24734869328554784
 0.21454881163271622 0.24734869328547074 0.21454881163271172 0.24734869328550807 0.5832761963483891 -0.6487208130959099 -0.012373819613866686 0.1540234265250154
 0.21454881163271458 0.2473486932855026 0.21454881163272113 0.2473486932855478 -0.012373819613866707 0.15402342652501536 0.5832761963484684 -0.648720813095809
50000000.0 0.5633788256642357 -0.6614204243294137 0.0025950616900810995 0.16604202654805306 0.21701305632281812 0.24768919889070598 0.2170130563228166 0.24768919889073815
 0.00259506169008111 0.16604202654805297 0.563378825664343 -0.6614204243292905 0.21701305632281365 0.24768919889074362 0.21701305632282342 0.2476891988907838
 0.21701305632281803 0.24768919889070587 0.21701305632281379 0.2476891988907437 0.5775523269896025 -0.6514581309396664 -0.011578439635284517 0.15607973315830245
 0.21701305632281648 0.24768919889073798 0.2170130563228233 0.24768919889078364 -0.011578439635284514 0.15607973315830237 0.5775523269896822 -0.6514581309395651
50500000.0 0.5575051228247169 -0.6640346707217143 0.00357642207855896 0.16802958775309912 0.21945922754833816 0.24800254148433376 0.21945922754833683 0.24800254148436646
 0.0035764220785589793 0.168029587753099 0.5575051228248256 -0.6640346707215911 0.21945922754833383 0.2480025414843719 0.21945922754834404 0.24800254148441261
 0.21945922754833805 0.24800254148433362 0.21945922754833394 0.24800254148437195 0.5718407264887347 -0.6541321660694926 -0.010759181585457947 0.15812708310087373
 0.21945922754833666 0.24800254148436623 0.2194592275483439 0.24800254148441245 -0.010759181585457977 0.15812708310087364 0.5718407264888159 -0.6541321660693911
51000000.0 0.5516460026342067 -0.666584043259265 0.004579668396180891 0.1700053641181144 0.22188716448478193 0.24828933957060179 0.2218871644847807 0.24828933957063495
 0.004579668396180942 0.17000536411811432 0.5516460026343162 -0.6665840432591413 0.22188716448477772 0.24828933957064045 0.22188716448478818 0.24828933957068147
 0.22188716448478174 0.24828933957060167 0.2218871644847778 0.2482893395706405 0.5661420257778343 -0.6567436924427441 -0.009916354747446033 0.1601650133015899
 0.22188716448478055 0.2482893395706347 0.2218871644847881 0.24828933957068136 -0.009916354747446038 0.1601650133015898 0.5661420257779164 -0.6567436924426424
51500000.0 0.5458021050901104 -0.6690693647093024 0.005604452810760631 0.17196895674250326 0.22429672104953963 0.24855020398342656 0.2242967210495386 0.24855020398346003
 0.005604452810760631 0.17196895674250323 0.5458021050902213 -0.6690693647091787 0.22429672104953574 0.2485502039834658 0.2242967210495464 0.24855020398350708
 0.22429672104953946 0.2485502039834264 0.22429672104953577 0.24855020398346575 0.5604568346377323 -0.6592934825457779 -0.009050276736860225 0.16219307457897483
 0.22429672104953852 0.24855020398345984 0.22429672104954626 0.2485502039835069 -0.0090502767368602 0.16219307457897478 0.5604568346378151 -0.6592934825456761
52000000.0 0.5399740480745108 -0.6714914561112897 0.006650421131296242 0.1739199807094808 0.2266877653970713 0.2487857377009317 0.22668776539707028 0.24878573770096554
 0.006650421131296252 0.17391998070948078 0.5399740480746227 -0.6714914561111656 0.2266877653970675 0.24878573770097137 0.22668776539707852 0.24878573770101314
 0.22668776539707117 0.24878573770093157 0.2266877653970675 0.24878573770097137 0.554785742147103 -0.6617823070160971 -0.008161272941295343 0.16421083161428476
 0.22668776539707022 0.2487857377009654 0.2266877653970784 0.248785737701013 -0.00816127294129535 0.16421083161428474 0.5547857421471871 -0.6617823070159949
52500000.0 0.5341624278158936 -0.6738511363821922 0.00771721333999634 0.17585806502383372 0.22906017942202928 0.24899653567920696 0.22906017942202853 0.24899653567924124
 0.007717213339996362 0.17585806502383364 0.534162427816007 -0.6738511363820684 0.22906017942202578 0.24899653567924718 0.22906017942203705 0.2489965356792892
 0.22906017942202914 0.24899653567920682 0.2290601794220259 0.24899653567924732 0.5491293171288599 -0.6642109342848358 -0.0072496759729690444 0.16621786292647348
 0.22906017942202841 0.24899653567924115 0.229060179422037 0.24899653567928917 -0.00724967597296906 0.16621786292647342 0.5491293171289449 -0.6642109342847335
53000000.0 0.528367819348551 -0.6761492219423882 0.00880446410997852 0.17778285253356646 0.23141385827070896 0.24918318470443918 0.23141385827070837 0.2491831847044738
 0.00880446410997854 0.17778285253356638 0.5283678193486657 -0.6761492219422641 0.2314138582707056 0.2491831847044799 0.23141385827071712 0.2491831847045222
 0.23141385827070873 0.24918318470443895 0.23141385827070565 0.24918318470447992 0.5434881085933824 -0.666580130238855 -0.0063158251348518655 0.1682137608300296
 0.23141385827070826 0.24918318470447362 0.23141385827071706 0.24918318470452214 -0.006315825134851859 0.1682137608300296 0.5434881085934683 -0.6665801302387527
53500000.0 0.5225907769691494 -0.6783865263615022 0.009911803308455302 0.17969399983639894 0.233748709861171 0.24934626326258033 0.23374870986117058 0.2493462632626154
 0.009911803308455315 0.1796939998363989 0.5225907769692648 -0.6783865263613779 0.23374870986116786 0.24934626326262155 0.23374870986117974 0.2493462632626643
 0.2337487098611708 0.24934626326258016 0.23374870986116794 0.24934626326262155 0.5378626461781253 -0.6688906579017513 -0.005360065900519473 0.17019813137664408
 0.23374870986117044 0.24934626326261522 0.23374870986117957 0.24934626326266413 -0.005360065900519487 0.170198131376644 0.5378626461782119 -0.6688906579016485
54000000.0 0.5168318346900053 -0.6805638600234759 0.011038856485264958 0.1815911771720576 0.23606465441233762 0.2494863414257382 0.23606465441233748 0.24948634142577378
 0.011038856485264977 0.18159117717205756 0.5168318346901217 -0.6805638600233515 0.23606465441233473 0.24948634142577994 0.236064654412347 0.24948634142582302
 0.23606465441233757 0.24948634142573817 0.23606465441233485 0.24948634142577997 0.5322534405831891 -0.6711432771330623 -0.0043827494079182044 0.1721705942816401
 0.23606465441233734 0.2494863414257736 0.2360646544123468 0.24948634142582288 -0.0043827494079181776 0.17217059428164003 0.5322534405832768 -0.6711432771329594
54500000.0 0.5110915066886454 -0.6826820298101938 0.012185245346648263 0.18347406830127744 0.23836162398232538 0.24960398075448764 0.23836162398232538 0.24960398075452359
 0.012185245346648296 0.18347406830127735 0.5110915066887635 -0.6826820298100695 0.23836162398232275 0.24960398075452989 0.23836162398233535 0.24960398075457332
 0.23836162398232522 0.24960398075448753 0.23836162398232286 0.24960398075452997 0.5266609840024817 -0.6733387443450006 -0.0033842319671874444 0.17413078283608072
 0.23836162398232533 0.24960398075452347 0.2383616239823352 0.24960398075457316 -0.0033842319671874483 0.17413078283608063 0.5266609840025704 -0.6733387443448978
55000000.0 0.5053702877532654 -0.6847418388029889 0.013350588214209204 0.1853423703724054 0.24063956201623435 0.2496997342153217 0.24063956201623468 0.24969973421535802
 0.013350588214209208 0.18534237037240542 0.5053702877533844 -0.6847418388028644 0.24063956201623202 0.2496997342153645 0.24063956201624495 0.24969973421540828
 0.2406395620162343 0.24969973421532166 0.24063956201623216 0.24969973421536454 0.5210857505501235 -0.6754778122360245 -0.002364874582648085 0.17607834380543716
 0.24063956201623454 0.24969973421535788 0.24063956201624473 0.24969973421540803 -0.002364874582648097 0.17607834380543705 0.5210857505502128 -0.6754778122359214
55500000.0 0.499668653723736 -0.6867440860013756 0.014534500469036217 0.18719579377647186 0.24289842290358513 0.24977414611248222 0.24289842290358563 0.2497741461125189
 0.014534500469036251 0.1871957937764718 0.49966865372385594 -0.6867440860012508 0.24289842290358293 0.2497741461125254 0.24289842290359617 0.2497741461125695
 0.24289842290358502 0.24977414611248214 0.24289842290358304 0.24977414611252546 0.5155281966817978 -0.6775612295405923 -0.001325042489025145 0.17801293731568496
 0.24289842290358551 0.24977414611251875 0.24289842290359606 0.24977414611256937 -0.00132504248902512 0.17801293731568488 0.5155281966818882 -0.6775612295404893
56000000.0 0.493987061927843 -0.6886895660583572 0.015736594980991583 0.18903406199156594 0.24513817154555345 0.24982775203342644 0.24513817154555415 0.24982775203346358
 0.015736594980991565 0.1890340619915659 0.4939870619279641 -0.6886895660582328 0.2451381715455516 0.24982775203347016 0.24513817154556505 0.24982775203351454
 0.2451381715455533 0.24982775203342636 0.24513817154555165 0.24982775203347013 0.5099887616107747 -0.6795897407944579 -0.0002651047019394513 0.17993423672766268
 0.24513817154555406 0.24982775203346347 0.2451381715455649 0.2498277520335144 -0.0002651047019394863 0.1799342367276626 0.509988761610866 -0.6795897407943545
56500000.0 0.48832595161247616 -0.6905790690316834 0.01695648252321119 0.19085691141732677 0.2473587829321266 0.2498610788072097 0.24735878293212737 0.24986107880724712
 0.01695648252321119 0.19085691141732664 0.48832595161259856 -0.6905790690315589 0.24735878293212488 0.24986107880725386 0.24735878293213873 0.24986107880729858
 0.24735878293212638 0.2498610788072096 0.24735878293212507 0.24986107880725397 0.5044678677183595 -0.6815640861148662 0.0008145664173283399 0.18184192850050573
 0.24735878293212726 0.249861078807247 0.24735878293213862 0.2498610788072985 0.0008145664173283105 0.18184192850050562 0.5044678677184516 -0.6815640861147628
57000000.0 0.48268574436950945 -0.6924133801504325 0.01819377217188468 0.1926640912003321 0.2495602417292728 0.24987464447508204 0.24956024172927388 0.2498746444751199
 0.0181937721718847 0.19266409120033204 0.4826857443696327 -0.6924133801503078 0.24956024172927138 0.24987464447512667 0.2495602417292855 0.24987464447517171
 0.24956024172927266 0.24987464447508193 0.24956024172927144 0.2498746444751267 0.49896592095856346 -0.6834850009950452 0.0019135955828312552 0.1837357120449406
 0.2495602417292738 0.24987464447511984 0.24956024172928543 0.24987464447517166 0.001913595582831236 0.18373571204494055 0.49896592095865666 -0.6834850009949415
57500000.0 0.4770668445561501 -0.6941932795963215 0.019448071691411963 0.19445536305114094 0.2517425418761883 0.24986895827262273 0.25174254187618955 0.249868958272661
 0.019448071691411987 0.19445536305114083 0.47706684455627446 -0.694193279596197 0.25174254187618705 0.24986895827266783 0.25174254187620154 0.2498689582727131
 0.25174254187618805 0.2498689582726226 0.2517425418761871 0.24986895827266783 0.49348331125680256 -0.6853532161123828 0.0030316049907600563 0.18561529956719797
 0.2517425418761894 0.24986895827266078 0.25174254187620143 0.24986895827271302 0.0030316049907600554 0.1856152995671979 0.49348331125689643 -0.6853532161122792
58000000.0 0.471469639709553 -0.6959195422991541 0.02071898790506017 0.19623050105371528 0.25390568619266213 0.24984452062275217 0.2539056861926637 0.2498445206227909
 0.0207189879050602 0.19623050105371526 0.4714696397096788 -0.6959195422990294 0.2539056861926613 0.24984452062279786 0.25390568619267617 0.24984452062284357
 0.25390568619266196 0.24984452062275206 0.25390568619266135 0.2498445206227978 0.48802041290247067 -0.6871694571497218 0.004168214712143151 0.18748041590427877
 0.25390568619266357 0.24984452062279072 0.2539056861926759 0.24984452062284332 0.004168214712143158 0.18748041590427866 0.48802041290256554 -0.687169457149618
58500000.0 0.4658945009555283 -0.6975929377458295 0.02200612705126394 0.19798929146792038 0.25604968599657224 0.249801823138988 0.256049685996574 0.24980182313902705
 0.022006127051263917 0.19798929146792033 0.46589450095565477 -0.6975929377457052 0.25604968599657174 0.2498018231390341 0.2560496859965868 0.24980182313908
 0.256049685996572 0.24980182313898788 0.25604968599657174 0.24980182313903404 0.4825775849352479 -0.6889344446291885 0.005323043071544747 0.18933079835127486
 0.2560496859965738 0.24980182313902685 0.2560496859965865 0.24980182313907984 0.005323043071544727 0.1893307983512748 0.4825775849353436 -0.6889344446290845
59000000.0 0.4603417834111839 -0.699214229802366 0.023309095125736815 0.1997315325257755 0.2581745607315074 0.24974134863832906 0.25817456073150924 0.24974134863836844
 0.023309095125736826 0.19973153252577544 0.46034178341131154 -0.6992142298022412 0.258174560731507 0.2497413486383756 0.2581745607315224 0.2497413486384219
 0.2581745607315072 0.2497413486383288 0.2581745607315071 0.24974134863837558 0.47715517152502934 -0.6906488937580235 0.006495707011891884 0.19116619648142882
 0.2581745607315092 0.24974134863836828 0.2581745607315223 0.24974134863842173 0.006495707011891848 0.19116619648142877 0.47715517152512593 -0.6906488937579194
59500000.0 0.4548118265813826 -0.7007841765483847 0.024627498209577964 0.20145703422209785 0.260280337604487 0.2496635711631776 0.2602803376044892 0.24966357116321744
 0.02462749820957799 0.20145703422209782 0.45481182658151137 -0.7007841765482601 0.26028033760448704 0.24966357116322463 0.2602803376045028 0.24966357116327126
 0.2602803376044869 0.24966357116317753 0.26028033760448704 0.2496635711632247 0.47175350234538477 -0.6923135142858717 0.007685822445576282 0.1929863719595806
 0.26028033760448904 0.24966357116321725 0.26028033760450253 0.24966357116327106 0.007685822445576252 0.1929863719595805 0.47175350234548197 -0.6923135142857675
60000000.0 0.4493049547488906 -0.7023035301235404 0.025960942783575944 0.20316561810015574 0.2623670512337334 0.24956895601172707 0.2623670512337359 0.2495689560117672
 0.02596094278357597 0.2031656181001557 0.44930495474902027 -0.7023035301234158 0.26236705123373366 0.24956895601177453 0.26236705123374976 0.24956895601182136
 0.2623670512337333 0.24956895601172696 0.26236705123373383 0.2495689560117746 0.4663728929404693 -0.6939290103730182 0.008893004591997548 0.19479109834962938
 0.2623670512337357 0.24956895601176704 0.26236705123374965 0.24956895601182122 0.008893004591997567 0.19479109834962927 0.4663728929405674 -0.6939290103729141
60500000.0 0.4438214773581382 -0.7037730365853829 0.02730903602892852 0.20485711703292067 0.26443474330643296 0.24945795977626659 0.2644347433064356 0.2494579597763072
 0.02730903602892853 0.20485711703292056 0.44382147735826893 -0.7037730365852588 0.26443474330643335 0.2494579597763144 0.26443474330645 0.2494579597763617
 0.2644347433064327 0.2494579597762664 0.2644347433064335 0.2494579597763144 0.46101364508533477 -0.6954960804690787 0.010116868301732253 0.19658016091661187
 0.2644347433064354 0.24945795977630686 0.26443474330644967 0.2494579597763614 0.010116868301732283 0.19658016091661176 0.46101364508543385 -0.6954960804689746
61000000.0 0.43836168939250975 -0.7051934357781582 0.02867138611460949 0.2065313750004797 0.26648346224640607 0.24933103038887514 0.266483462246409 0.24933103038891602
 0.028671386114609503 0.20653137500047966 0.43836168939264153 -0.705193435778034 0.26648346224640695 0.2493310303889235 0.2664834622464237 0.24933103038897095
 0.26648346224640596 0.249331030388875 0.2664834622464069 0.24933103038892349 0.4556760471395954 -0.6970154172016515 0.011357028367524042 0.19835335642396854
 0.26648346224640895 0.24933103038891594 0.26648346224642366 0.2493310303889709 0.011357028367524013 0.1983533564239685 0.45567604713969545 -0.6970154172015474
61500000.0 0.43292587174511055 -0.7065654612120696 0.030047602471626925 0.208188246864146 0.26851326289159655 0.2491886071739983 0.2685132628915996 0.24918860717403954
 0.03004760247162694 0.20818824686414594 0.43292587174524316 -0.7065654612119453 0.2685132628915976 0.24918860717404714 0.26851326289161476 0.24918860717409488
 0.26851326289159627 0.2491886071739981 0.26851326289159766 0.2491886071740471 0.45036037439442894 -0.6984877072744792 0.012613099822308935 0.20011049292655073
 0.2685132628915995 0.24918860717403937 0.2685132628916145 0.24918860717409466 0.012613099822308991 0.20011049292655067 0.45036037439452964 -0.6984877072743748
62000000.0 0.4275142915829656 -0.7078898399525424 0.03143729605442829 0.20982759813777627 0.27052420618126777 0.24903112090741997 0.27052420618127115 0.24903112090746155
 0.031437296054428264 0.2098275981377762 0.42751429158309956 -0.7078898399524182 0.27052420618126927 0.2490311209074694 0.27052420618128653 0.24903112090751722
 0.2705242061812676 0.2490311209074199 0.27052420618126927 0.24903112090746937 0.44506688941289635 -0.6999136313746597 0.013884698224497933 0.2018513895598891
 0.27052420618127104 0.24903112090746143 0.2705242061812864 0.24903112090751717 0.013884698224497923 0.20185138955988907 0.44506688941299777 -0.6999136313745554
62500000.0 0.42212720270462273 -0.709167292519037 0.03284007958971617 0.211449304756781 0.27251635885279474 0.24885899388116547 0.27251635885279835 0.24885899388120744
 0.03284007958971619 0.2114493047567809 0.4221272027047576 -0.7091672925189128 0.27251635885279646 0.24885899388121527 0.2725163588528143 0.24885899388126353
 0.2725163588527945 0.2488589938811653 0.27251635885279646 0.2488589938812152 0.4397958423635876 -0.7012938640884879 0.015171439930751698 0.2035758763262271
 0.2725163588527982 0.24885899388120725 0.2725163588528141 0.24885899388126345 0.015171439930751677 0.2035758763262271 0.4397958423636903 -0.7012938640883836
63000000.0 0.4167648458911445 -0.7103985327929885 0.03425556781294973 0.21305325284528875 0.2744897931479165 0.2486726399738878 0.2744897931479205 0.24867263997393022
 0.0342555678129497 0.21305325284528862 0.41676484589128016 -0.7103985327928645 0.2744897931479185 0.248672639973938 0.27448979314793676 0.24867263997398656
 0.27448979314791633 0.2486726399738877 0.2744897931479187 0.24867263997393801 0.43454747134760346 -0.7026290738254961 0.016472942356490904 0.20528379387779164
 0.27448979314792027 0.24867263997392997 0.2744897931479366 0.2486726399739864 0.016472942356490872 0.20528379387779155 0.43454747134770677 -0.7026290738253916
63500000.0 0.4114274492504831 -0.7115842679344493 0.035683377692809215 0.21463933848190042 0.27644458652831705 0.24847246472631299 0.2764445865283212 0.24847246472635567
 0.03568337769280923 0.21463933848190034 0.4114274492506197 -0.7115842679343252 0.27644458652831944 0.24847246472636358 0.2764445865283378 0.24847246472641238
 0.2764445865283168 0.24847246472631282 0.2764445865283194 0.24847246472636353 0.42932200271889787 -0.7039199227503107 0.017788824224394713 0.20697499329775695
 0.27644458652832105 0.24847246472635548 0.2764445865283377 0.2484724647264123 0.017788824224394692 0.2069749932977569 0.4293220027190019 -0.7039199227502061
64000000.0 0.40611522855525045 -0.7127251983070368 0.037123128643911846 0.21620746746444577 0.27838082140038134 0.24825886542133468 0.2783808214003858 0.24825886542137776
 0.03712312864391184 0.21620746746444575 0.4061152285553881 -0.7127251983069129 0.278380821400384 0.2482588654213857 0.2783808214004029 0.24825886542143483
 0.2783808214003812 0.24825886542133457 0.278380821400384 0.24825886542138567 0.4241196513980171 -0.7051670667219234 0.019118705801145438 0.2086493358793275
 0.2783808214003856 0.2482588654213776 0.2783808214004026 0.2482588654214346 0.019118705801145414 0.2086493358793274 0.4241196513981219 -0.705167066721819
64500000.0 0.4008283875738947 -0.7138220174108016 0.03857444272806901 0.2177575550741353 0.2802985848489801 0.24803223116837272 0.2802985848489849 0.2480322311684161
 0.03857444272806902 0.21775755507413522 0.40082838757403333 -0.7138220174106779 0.2802985848489831 0.24803223116842407 0.2802985848490024 0.2480322311684735
 0.28029858484898007 0.24803223116837267 0.2802985848489833 0.2480322311684242 0.4189406211792782 -0.7063711552400226 0.020462209122685676 0.21030669290335155
 0.28029858484898473 0.248032231168416 0.2802985848490023 0.2480322311684734 0.020462209122685655 0.21030669290335138 0.4189406211793837 -0.706371155239918
65000000.0 0.39556711839531256 -0.7148754118226348 0.0400369448443789 0.21928952583947145 0.28219796838011585 0.24779294299162188 0.2821979683801208 0.24779294299166563
 0.0400369448443789 0.21928952583947137 0.39556711839545217 -0.7148754118225114 0.28219796838011907 0.24779294299167373 0.2821979683801388 0.24779294299172339
 0.2821979683801157 0.24779294299162188 0.2821979683801192 0.24779294299167381 0.4137851050314353 -0.7075328313980154 0.021818958208256183 0.21194694541484715
 0.2821979683801206 0.24779294299166552 0.2821979683801385 0.2477929429917233 0.021818958208256165 0.21194694541484702 0.41378510503154164 -0.7075328313979108
65500000.0 0.390331601746932 -0.71588606114387 0.04151026290845398 0.22080331330027006 0.28407906767226787 0.2475413739218406 0.2840790676722731 0.24754137392188466
 0.041510262908453985 0.22080331330026998 0.39033160174707277 -0.7158860611437462 0.2840790676722715 0.247541373921893 0.28407906767229146 0.24754137392194286
 0.28407906767226776 0.24754137392184059 0.2840790676722717 0.24754137392189313 0.40865328539189594 -0.7086527318424123 0.023188579263490404 0.21356998399880775
 0.284079067672273 0.24754137392188447 0.28407906767229135 0.2475413739219427 0.02318857926349039 0.21356998399880764 0.4086532853920029 -0.708652731842308
66000000.0 0.38512200730631 -0.7168546379547192 0.04299402802108036 0.22229885977211472 0.2859419823362653 0.24727788909134346 0.2859419823362707 0.24727788909138787
 0.042994028021080384 0.22229885977211467 0.3851220073064514 -0.7168546379545957 0.2859419823362692 0.24727788909139614 0.2859419823362895 0.24727788909144627
 0.2859419823362651 0.24727788909134332 0.2859419823362692 0.2472778890913961 0.4035453344545495 -0.7097314867382393 0.024570700872841002 0.21517570855562995
 0.2859419823362706 0.2472778890913877 0.2859419823362892 0.24727788909144607 0.024570700872840988 0.2151757085556299 0.4035453344546575 -0.7097314867381347
66500000.0 0.3799384940062864 -0.7177818077752236 0.04448787462661254 0.22377611611155176 0.2877868156835105 0.24700284583187795 0.28778681568351616 0.2470028458319226
 0.0444878746266126 0.2237761161115516 0.3799384940064287 -0.7177818077751005 0.2877868156835148 0.24700284583193097 0.28778681568353537 0.24700284583198126
 0.28778681568351017 0.2470028458318777 0.2877868156835149 0.24700284583193097 0.3984614144512806 -0.7107697197401665 0.02596495418161846 0.21676402807648945
 0.28778681568351605 0.24700284583192245 0.2877868156835352 0.2470028458319812 0.025964954181618427 0.2167640280764894 0.39846141445138933 -0.710769719740062
67000000.0 0.37478121033376033 -0.7186682290323931 0.04599144066140275 0.22523504148230986 0.28961367450237785 0.24671659377508412 0.28961367450238384 0.24671659377512917
 0.04599144066140276 0.22523504148230974 0.3747812103339039 -0.71866822903227 0.2896136745023825 0.24671659377513758 0.2896136745024035 0.2467165937751882
 0.2896136745023776 0.24671659377508395 0.2896136745023826 0.2467165937751376 0.39340167792724 -0.7117680479690562 0.027370973067923184 0.21833486041896782
 0.2896136745023837 0.24671659377512906 0.2896136745024033 0.2467165937751881 0.027370973067923163 0.2183348604189677 0.39340167792734954 -0.7117680479689515
67500000.0 0.3696502946221424 -0.7195145530332288 0.04750436769256688 0.22667560312281493 0.2914226688426042 0.24641947495525007 0.29142266884261053 0.24641947495529545
 0.04750436769256688 0.22667560312281484 0.3696502946222866 -0.719514553033106 0.29142266884260914 0.2464194749553039 0.2914226688426306 0.24641947495535485
 0.29142266884260404 0.24641947495524993 0.29142266884260926 0.24641947495530392 0.38836626800995794 -0.7127270819936384 0.028788394304751237 0.2198881320832194
 0.29142266884261053 0.24641947495529537 0.2914226688426304 0.24641947495535468 0.028788394304751226 0.21988813208321933 0.38836626801006846 -0.7127270819935341
68000000.0 0.3645458753375508 -0.7203214239433388 0.04902630104738727 0.2280977761152463 0.2932139118074894 0.24611182391408987 0.29321391180749595 0.24611182391413552
 0.04902630104738729 0.22809777611524623 0.36454587533769595 -0.7203214239432157 0.2932139118074947 0.24611182391414416 0.2932139118075164 0.24611182391419523
 0.2932139118074892 0.24611182391408976 0.29321391180749473 0.24611182391414418 0.3833553186723804 -0.7136474258170431 0.03021685771255781 0.22142377798894552
 0.2932139118074959 0.24611182391413536 0.2932139118075162 0.2461118239141951 0.030216857712557794 0.2214237779889454 0.3833553186724914 -0.7136474258169389
68500000.0 0.3594680713588235 -0.721089478770858 0.05055688993365004 0.22950154315636814 0.2949875193537211 0.24579396780728918 0.2949875193537279 0.24579396780733515
 0.05055688993365 0.2295015431563681 0.35946807135896963 -0.7210894787707349 0.2949875193537267 0.245793967807344 0.29498751935374873 0.24579396780739524
 0.29498751935372086 0.2457939678072891 0.2949875193537267 0.24579396780734392 0.3783689549899172 -0.7145296768679219 0.031656006302556376 0.22294174125342714
 0.2949875193537278 0.24579396780733503 0.29498751935374856 0.2457939678073951 0.03165600630255639 0.22294174125342706 0.37836895499002876 -0.7145296768678175
69000000.0 0.35441699225141876 -0.7218193473554082 0.05209578755121506 0.23088689433035087 0.2967436100986404 0.24546622651257358 0.2967436100986475 0.24546622651261987
 0.052095787551215064 0.23088689433035076 0.3544169922515655 -0.7218193473552857 0.2967436100986464 0.24546622651262856 0.29674361009866884 0.24546622651268005
 0.2967436100986402 0.24546622651257344 0.29674361009864647 0.24546622651262862 0.37340729339159495 -0.7153744259959148 0.03310548641103873 0.2244419729708521
 0.2967436100986473 0.24546622651261968 0.2967436100986687 0.2454662265126799 0.03310548641103871 0.22444197297085203 0.3734072933917072 -0.7153744259958105
69500000.0 0.34939273853528363 -0.722511652361833 0.053642651195110615 0.23225382688378138 0.29848230513475965 0.24512891273907123 0.2984823051347672 0.24512891273911794
 0.053642651195110615 0.23225382688378135 0.34939273853543135 -0.7225116523617106 0.298482305134766 0.24512891273912674 0.29848230513478885 0.24512891273917845
 0.2984823051347595 0.24512891273907123 0.29848230513476615 0.24512891273912676 0.36847044190540573 -0.7161822574712117 0.03456494782498858 0.22592443199315504
 0.29848230513476703 0.24512891273911774 0.2984823051347886 0.24512891273917828 0.03456494782498855 0.22592443199315485 0.3684704419055187 -0.7161822574711075
70000000.0 0.34439540194677054 -0.7231670092784598 0.05519714235044602 0.233602345003046 0.30020372785134813 0.24478233213775313 0.3002037278513558 0.24478233213780004
 0.05519714235044604 0.23360234500304594 0.344395401946919 -0.7231670092783375 0.30020372785135474 0.244782332137809 0.3002037278513779 0.24478233213786085
 0.3002037278513479 0.24478233213775302 0.30020372785135485 0.24478233213780898 0.36355850039794513 -0.716953748987991 0.03603404389927124 0.2273890847125719
 0.3002037278513556 0.24478233213779982 0.3002037278513776 0.24478233213786063 0.03603404389927121 0.22738908471257174 0.36355850039805865 -0.7169537489878868
70500000.0 0.33942506569468495 -0.7237860264196541 0.056758926779428655 0.23493245959425496 0.3019080037628989 0.2444267834127462 0.30190800376290705 0.24442678341279353
 0.05675892677942864 0.2349324595942549 0.33942506569483444 -0.723786026419532 0.30190800376290605 0.24442678341280247 0.30190800376292953 0.24442678341285465
 0.3019080037628988 0.24442678341274607 0.30190800376290616 0.24442678341280247 0.3586715608084433 -0.7176894716715064 0.03751243166567006 0.2288359048461018
 0.30190800376290694 0.2444267834127934 0.30190800376292926 0.24442678341285445 0.03751243166566999 0.22883590484610172 0.35867156080855783 -0.7176894716714021
71000000.0 0.3344818047105544 -0.7243693049324305 0.05832767460076846 0.23624418806586414 0.30359526034429385 0.24406255843333063 0.3035952603443022 0.24406255843337818
 0.05832767460076844 0.2362441880658641 0.33448180471070443 -0.7243693049323086 0.3035952603443013 0.24406255843338726 0.30359526034432505 0.2440625584334396
 0.3035952603442936 0.24406255843333055 0.3035952603443013 0.24406255843338726 0.3538097073772814 -0.7183899900886179 0.03899977193404114 0.23026487322204614
 0.303595260344302 0.24406255843337804 0.3035952603443249 0.24406255843343944 0.03899977193404113 0.23026487322204603 0.35380970737739664 -0.7183899900885139
71500000.0 0.329565685893199 -0.7249174388069087 0.059903060361752525 0.23753755411413305 0.305265626872479 0.24368994234643573 0.3052656268724875 0.24368994234648358
 0.05990306036175255 0.23753755411413308 0.32956568589335006 -0.7249174388067867 0.30526562687248676 0.24368994234649272 0.30526562687251096 0.24368994234654529
 0.3052656268724788 0.2436899423464356 0.3052656268724869 0.24368994234649272 0.3489730168690938 -0.7190558622615697 0.04049572938585732 0.23167597756878852
 0.3052656268724875 0.24368994234648347 0.3052656268725107 0.24368994234654517 0.0404957293858573 0.23167597756878844 0.3489730168692099 -0.7190558622614653
72000000.0 0.32467676834770187 -0.7254310148903977 0.061484763103261716 0.2388125875115505 0.30691923427447243 0.24330921368947203 0.30691923427448137 0.24330921368952022
 0.06148476310326169 0.2388125875115504 0.32467676834785375 -0.7254310148902761 0.30691923427448053 0.24330921368952935 0.30691923427450507 0.2433092136895822
 0.3069192342744723 0.24330921368947206 0.30691923427448065 0.24330921368952943 0.3441615587905613 -0.7196876396848156 0.04199997266040173 0.23306921230596328
 0.30691923427448126 0.24330921368952016 0.30691923427450496 0.24330921368958205 0.041999972660401674 0.2330692123059632 0.3441615587906782 -0.7196876396847116
72500000.0 0.31981510361886284 -0.7259106129049142 0.06307246641800252 0.24006932389834176 0.30855621498152114 0.24292064450333545 0.30855621498153024 0.24292064450338385
 0.0630724664180025 0.2400693238983417 0.31981510361901566 -0.7259106129047929 0.3085562149815296 0.24292064450339315 0.30855621498155456 0.2429206445034462
 0.3085562149815209 0.24292064450333536 0.30855621498152963 0.24292064450339315 0.33937539560298896 -0.7202858673447259 0.043512174433876116 0.2344445783381478
 0.3085562149815301 0.24292064450338377 0.3085562149815543 0.24292064450344603 0.04351217443387603 0.23444457833814777 0.33937539560310626 -0.7202858673446217
73000000.0 0.314980735919233 -0.7263568054679396 0.06466585850221922 0.2413078045771625 0.3101767027892271 0.2425245004454385 0.31017670278923665 0.24252450044548726
 0.06466585850221922 0.24130780457716233 0.31498073591938647 -0.7263568054678183 0.310176702789236 0.24252450044549642 0.3101767027892612 0.24252450044554963
 0.3101767027892268 0.24252450044543836 0.31017670278923604 0.2425245004454966 0.33461458292977486 -0.7208510837419845 0.0450320114916768 0.2358020828512019
 0.31017670278923637 0.24252450044548704 0.31017670278926096 0.2425245004455495 0.04503201149167675 0.23580208285120177 0.3346145829298929 -0.7208510837418806
73500000.0 0.3101737023518169 -0.7267701581162305 0.06626463220114726 0.2425280763110731 0.31178083272347057 0.24212104090262926 0.3117808327234805 0.24212104090267833
 0.0662646322011472 0.24252807631107307 0.3101737023519712 -0.7267701581161097 0.31178083272347984 0.2421210409026877 0.3117808327235055 0.24212104090274103
 0.31178083272347035 0.2421210409026292 0.3117808327234799 0.2421210409026877 0.3298791697588695 -0.7213838209165311 0.046559164794094214 0.2371417391113681
 0.31178083272348023 0.2421210409026781 0.31178083272350526 0.24212104090274086 0.04655916479409419 0.237141739111368 0.32987916975898823 -0.7213838209164274
74000000.0 0.3053940331275431 -0.7271512293325121 0.06786848504846181 0.24373019112487576 0.31336874091194966 0.2417105191038694 0.3133687409119598 0.24171051910391872
 0.06786848504846177 0.24373019112487565 0.3053940331276981 -0.7271512293323912 0.3133687409119593 0.24171051910392816 0.3133687409119852 0.24171051910398159
 0.3133687409119494 0.2417105191038692 0.31336874091195926 0.24171051910392813 0.32516919864032406 -0.7218846044748751 0.048093319535680315 0.23846356626723314
 0.31336874091195954 0.24171051910391853 0.3133687409119851 0.24171051910398156 0.04809331953568026 0.238463566267233 0.3251691986404436 -0.7218846044747713
74500000.0 0.30064175177758884 -0.7275005705748812 0.06947711929997445 0.24491420610988626 0.3149405644611699 0.24129318223254928 0.3149405644611803 0.24129318223259896
 0.06947711929997448 0.24491420610988615 0.3006417517777448 -0.7275005705747607 0.3149405644611799 0.24129318223260834 0.3149405644612062 0.24129318223266205
 0.3149405644611697 0.2412931822325492 0.31494056446118 0.24129318223260837 0.32048470587903277 -0.7223539536196433 0.04963416519852986 0.2397675891546427
 0.3149405644611802 0.24129318223259874 0.31494056446120605 0.241293182232662 0.04963416519852983 0.23976758915464258 0.32048470587915306 -0.7223539536195396
75000000.0 0.2959168753606579 -0.7278187263087623 0.07109024196181954 0.24608018323220493 0.3164964413387123 0.24086927153833118 0.316496441338723 0.240869271538381
 0.07109024196181951 0.24608018323220485 0.29591687536081457 -0.727818726308642 0.3164964413387226 0.24086927153839066 0.31649644133874927 0.24086927153844442
 0.316496441338712 0.24086927153833115 0.31649644133872273 0.2408692715383907 0.3158257217227643 -0.7227923811812145 0.05118139559971274 0.2410538381046515
 0.31649644133872284 0.24086927153838086 0.31649644133874916 0.24086927153844429 0.05118139559971273 0.24105383810465142 0.315825721722885 -0.7227923811811113
75500000.0 0.2912194146653036 -0.7281062340412626 0.07270756481337026 0.24722818914454048 0.3180365102606135 0.2404390224484142 0.31803651026062446 0.2404390224484643
 0.0727075648133703 0.24722818914454048 0.2912194146654614 -0.7281062340411425 0.3180365102606244 0.24043902244847398 0.3180365102606512 0.240439022448528
 0.31803651026061336 0.2404390224484141 0.3180365102606243 0.240439022448474 0.31119227054558324 -0.7232003936513081 0.05273470893309007 0.24232234875458014
 0.3180365102606244 0.2404390224484642 0.3180365102606511 0.24043902244852794 0.052734708933090055 0.24232234875458009 0.31119227054570464 -0.7232003936512043
76000000.0 0.2865493744073888 -0.728363624357776 0.07432880442511833 0.2483582950016311 0.3195609105836963 0.24000266467812634 0.31956091058370767 0.2400026646781768
 0.07432880442511831 0.24835829500163104 0.28654937440754713 -0.728363624357656 0.3195609105837074 0.24000266467818643 0.31956091058373487 0.24000266467824072
 0.31956091058369607 0.24000266467812628 0.3195609105837075 0.24000266467818646 0.3065843710267626 -0.7235784912183941 0.054293807805744054 0.24357316186224343
 0.3195609105837075 0.24000266467817657 0.3195609105837346 0.2400026646782405 0.05429380780574407 0.2435731618622433 0.3065843710268848 -0.7235784912182908
76500000.0 0.2819067534227793 -0.7285914209607035 0.07595368217174235 0.24947057627930266 0.32106978220268856 0.23956042234075503 0.32106978220270027 0.23956042234080568
 0.07595368217174239 0.24947057627930255 0.28190675342293847 -0.7285914209605838 0.3210697822027001 0.23956042234081534 0.32106978220272797 0.2395604223408698
 0.3210697822026883 0.2395604223407549 0.3210697822027002 0.23956042234081543 0.3020020363252786 -0.7239271678048114 0.05585839926924248 0.24480632312340475
 0.3210697822027001 0.23956042234080552 0.3210697822027277 0.23956042234086963 0.05585839926924247 0.24480632312340464 0.3020020363254015 -0.7239271678047081
77000000.0 0.2772915448553602 -0.7287901407101475 0.07758192424058791 0.25056511259719144 0.3225632654519749 0.23911251405653314 0.3225632654519867 0.2391125140565841
 0.07758192424058792 0.25056511259719144 0.2772915448555201 -0.7287901407100279 0.3225632654519868 0.23911251405659384 0.3225632654520149 0.23911251405664843
 0.3225632654519747 0.23911251405653303 0.32256326545198694 0.23911251405659387 0.29744527424999 -0.7242469111054665 0.057428194845957584 0.24602188299250474
 0.3225632654519867 0.23911251405658404 0.32256326545201464 0.23911251405664824 0.057428194845957514 0.24602188299250471 0.2974452742501134 -0.7242469111053631
77500000.0 0.27270373634046957 -0.7289602936664598 0.07921326163577445 0.2516419875451567 0.32404150101182627 0.23865915306070742 0.3240415010118386 0.23865915306075866
 0.07921326163577445 0.25164198754515654 0.2727037363406302 -0.7289602936663405 0.3240415010118386 0.2386591530607684 0.32404150101186713 0.2386591530608232
 0.3240415010118261 0.23865915306070729 0.3240415010118387 0.23865915306076846 0.2929140874255927 -0.7245382026280124 0.05900291055065061 0.24721989650670345
 0.3240415010118383 0.23865915306075844 0.32404150101186685 0.23865915306082305 0.05900291055065059 0.2472198965067034 0.2929140874257169 -0.7245382026279091
78000000.0 0.268143310183839 -0.7291023831345195 0.08084743017813845 0.2527012885133967 0.32550462981895906 0.2382005473106178 0.3255046298189716 0.2382005473106692
 0.08084743017813846 0.2527012885133967 0.2681433101840004 -0.7291023831344001 0.32550462981897177 0.2382005473106792 0.3255046298190006 0.23820054731073398
 0.32550462981895883 0.2382005473106177 0.32550462981897177 0.23820054731067922 0.2884084734544466 -0.7248015177343976 0.06058226690753005 0.2484004231132692
 0.32550462981897155 0.23820054731066914 0.3255046298190003 0.23820054731073387 0.06058226690753006 0.24840042311326913 0.2884084734545713 -0.7248015177342947
78500000.0 0.26361024353613294 -0.7292169057096204 0.08248417050121583 0.25374310652628024 0.326952792981273 0.2377368995917272 0.3269527929812857 0.23773689959177888
 0.08248417050121583 0.2537431065262801 0.2636102435362952 -0.7292169057095014 0.32695279298128604 0.23773689959178887 0.326952792981315 0.237736899591844
 0.3269527929812727 0.23773689959172706 0.3269527929812861 0.2377368995917889 0.28392842507436333 -0.7250373256836874 0.06216598896298466 0.24956352650034144
 0.32695279298128566 0.23773689959177882 0.326952792981315 0.2377368995918439 0.062165988962984677 0.24956352650034141 0.2839284250744887 -0.7250373256835843
79000000.0 0.2591045085631761 -0.729304351324864 0.0841232280434628 0.25476753607989516 0.3283861316966273 0.23726840762254237 0.32838613169664044 0.23726840762259427
 0.08412322804346278 0.2547675360798951 0.25910450856333883 -0.7293043513247454 0.32838613169664066 0.2372684076226043 0.32838613169667036 0.2372684076226595
 0.32838613169662706 0.2372684076225423 0.3283861316966409 0.23726840762260437 0.27947393031245016 -0.7252460896760603 0.06375380629418823 0.25070927443108565
 0.3283861316966404 0.2372684076225942 0.3283861316966701 0.23726840762265936 0.06375380629418814 0.2507092744310855 0.2794739303125759 -0.7252460896759575
79500000.0 0.25462607261195735 -0.7293652032999485 0.08576435303690608 0.2557746749833149 0.32980478717551454 0.2367952641583753 0.3298047871755282 0.2367952641584276
 0.08576435303690609 0.2557746749833148 0.2546260726121208 -0.7293652032998302 0.32980478717552847 0.2367952641584375 0.32980478717555844 0.2367952641584929
 0.32980478717551437 0.2367952641583753 0.3298047871755286 0.23679526415843755 0.27504497263509575 -0.7254282668978956 0.06534545301376671 0.25183773858125647
 0.3298047871755281 0.23679526415842742 0.3298047871755582 0.23679526415849278 0.06534545301376667 0.25183773858125635 0.2750449726352225 -0.725428266897793
80000000.0 0.25017489837249784 -0.7293999383912505 0.08740730049240827 0.25676462420357343 0.33120890056749275 0.23631765709389785 0.3312089005675065 0.23631765709395028
 0.08740730049240825 0.2567646242035734 0.25017489837266194 -0.7293999383911324 0.3312089005675069 0.2363176570939604 0.33120890056753727 0.2363176570940159
 0.3312089005674926 0.2363176570938979 0.33120890056750707 0.23631765709396044 0.2706415310941909 -0.7255843085678606 0.06694066777071433 0.2529489943801775
 0.3312089005675064 0.2363176570939502 0.33120890056753693 0.23631765709401586 0.06694066777071431 0.25294899438017737 0.2706415310943181 -0.7255843085677579
80500000.0 0.2457509440356715 -0.7294090268431118 0.08905183018173021 0.2577374877143388 0.33259861289124437 0.2358357695644465 0.3325986128912586 0.2358357695644992
 0.08905183018173021 0.2577374877143387 0.24575094403583655 -0.7294090268429937 0.33259861289125897 0.23583576956450938 0.3325986128912897 0.23583576956456498
 0.3325986128912442 0.2358357695644464 0.3325986128912591 0.23583576956450938 0.2662635804696629 -0.7257146599839184 0.06853919374773802 0.25404312085513936
 0.33259861289125836 0.23583576956449895 0.33259861289128934 0.23583576956456484 0.06853919374773797 0.2540431208551392 0.26626358046979054 -0.7257146599838158
81000000.0 0.24135416344706095 -0.7293929324402277 0.09069770661656294 0.25869337234826767 0.33397406496813276 0.23534978004604087 0.33397406496814713 0.2353497800460936
 0.09069770661656296 0.2586933723482676 0.24135416344722668 -0.72939293244011 0.3339740649681478 0.235349780046104 0.3339740649681788 0.2353497800461597
 0.33397406496813253 0.23534978004604068 0.33397406496814797 0.23534978004610393 0.26191109140841734 -0.7258197605711832 0.0701407786552059 0.2551202004792172
 0.33397406496814713 0.23534978004609358 0.3339740649681785 0.2353497800461595 0.07014077865520583 0.25512020047921713 0.2619110914085456 -0.7258197605710809
81500000.0 0.23698450625693543 -0.729352112561061 0.09234469902469976 0.259632387653022 0.3353353973591265 0.23485986245408105 0.3353353973591414 0.23485986245413418
 0.09234469902469977 0.25963238765302193 0.23698450625710146 -0.7293521125609436 0.3353353973591419 0.23485986245414442 0.33533539735917345 0.2348598624542003
 0.3353353973591264 0.23485986245408103 0.33533539735914214 0.23485986245414445 0.25758403055976475 -0.7259000439305453 0.0717451747218695 0.2561803190225001
 0.33533539735914125 0.234859862454134 0.33533539735917317 0.23485986245420018 0.0717451747218694 0.2561803190225 0.2575840305598939 -0.7259000439304433
82000000.0 0.23264191806643153 -0.7292870182321913 0.09399258132351121 0.2605546457509218 0.33668275030497224 0.23436618624069697 0.33668275030498745 0.2343661862407504
 0.09399258132351124 0.26055464575092174 0.23264191806659865 -0.7292870182320742 0.3366827503049881 0.2343661862407606 0.3366827503050199 0.2343661862408167
 0.33668275030497213 0.23436618624069694 0.3366827503049882 0.23436618624076067 0.25328236070741733 -0.7259559378879986 0.07335213868252465 0.257223565406723
 0.33668275030498723 0.23436618624075023 0.33668275030501965 0.23436618624081662 0.07335213868252469 0.2572235654067229 0.25328236070754684 -0.7259559378878964
82500000.0 0.228326340570024 -0.7291980941835206 0.0956411320908799 0.2614602612022069 0.33801626366949145 0.23386891649071992 0.3380162636695068 0.2338689164907734
 0.09564113209087986 0.2614602612022068 0.22832634057019136 -0.7291980941834036 0.3380162636695075 0.23386891649078376 0.33801626366953963 0.23386891649083988
 0.3380162636694912 0.23386891649071975 0.3380162636695076 0.23386891649078378 0.24900604089813283 -0.7259878645446057 0.07496143176276979 0.25825003156328585
 0.33801626366950666 0.23386891649077324 0.33801626366953935 0.2338689164908397 0.07496143176276975 0.25825003156328574 0.2490060408982629 -0.7259878645445037
83000000.0 0.22403771169435668 -0.7290857789042646 0.09729013453375016 0.26234935087187694 0.33933607688588935 0.2333682140162576 0.33933607688590506 0.23336821401631133
 0.0972901345337501 0.26234935087187683 0.22403771169452488 -0.7290857789041479 0.33933607688590595 0.23336821401632174 0.33933607688593825 0.23336821401637803
 0.33933607688588907 0.2333682140162575 0.339336076885906 0.2333682140163217 0.24475502656708892 -0.7259962403270382 0.07657281966101698 0.25925981229464445
 0.3393360768859049 0.23336821401631114 0.33933607688593814 0.23336821401637783 0.07657281966101694 0.25925981229464434 0.2447550265672194 -0.7259962403269364
83500000.0 0.21977596573352826 -0.7289505046996521 0.09893937645443607 0.2632220338000747 0.34064232890596013 0.23286423544985313 0.3406423289059762 0.23286423544990711
 0.09893937645443598 0.26322203380007453 0.21977596573369698 -0.7289505046995355 0.340642328905977 0.23286423544991755 0.3406423289060098 0.2328642354499739
 0.34064232890595986 0.23286423544985305 0.3406423289059771 0.23286423544991755 0.24052926966005858 -0.725981476038633 0.07818607252790456 0.26025300513904936
 0.340642328905976 0.23286423544990692 0.34064232890600965 0.23286423544997376 0.07818607252790452 0.2602530051390492 0.2405292696601898 -0.7259814760385312
84000000.0 0.21554103348089437 -0.7287926977482666 0.10058865021483296 0.26407843107597523 0.341935158152078 0.23235713333621077 0.3419351581520944 0.23235713333626504
 0.10058865021483292 0.2640784310759751 0.215541033481064 -0.7287926977481503 0.3419351581520953 0.2323571333362755 0.34193515815212844 0.232357133336332
 0.34193515815207776 0.23235713333621072 0.3419351581520954 0.23235713333627553 0.23632871875247008 -0.7259439769109073 0.0798009649432561 0.26122971023860964
 0.34193515815209424 0.2323571333362648 0.34193515815212827 0.2323571333363319 0.07980096494325604 0.26122971023860947 0.23632871875260203 -0.7259439769108058
84500000.0 0.21133284235747718 -0.7286127781599657 0.10223775269866704 0.2649186657151428 0.3432147024718692 0.23184705622247737 0.34321470247188585 0.23184705622253177
 0.10223775269866696 0.26491866571514266 0.21133284235764715 -0.7286127781598497 0.3432147024718868 0.23184705622254234 0.3432147024719203 0.231847056222599
 0.3432147024718689 0.23184705622247734 0.34321470247188696 0.23184705622254237 0.23215331916541807 -0.725884142655484 0.08141727589072492 0.2621900302106548
 0.34321470247188574 0.23184705622253168 0.34321470247192004 0.2318470562225989 0.08141727589072487 0.2621900302106547 0.23215331916555054 -0.7258841426553824
85000000.0 0.20715131653704644 -0.7284111600343134 0.10388648527191564 0.2657428625403113 0.3444810990954596 0.23133414874706765 0.3444810990954768 0.23133414874712227
 0.10388648527191566 0.2657428625403112 0.2071513165372172 -0.7284111600341974 0.34448109909547775 0.23133414874713285 0.34448109909551167 0.23133414874718963
 0.34448109909545943 0.23133414874706767 0.34448109909547786 0.23133414874713298 0.22800301307870105 -0.725802367516371 0.0830347887302598 0.26313407002236294
 0.3444810990954766 0.2313341487471221 0.34448109909551144 0.23133414874718955 0.08303478873025973 0.2631340700223628 0.228003013078834 -0.7258023675162698
85500000.0 0.20299637706795542 -0.7281882515194683 0.10553465374152483 0.26655114806554636 0.3457344845952 0.23081855172702834 0.3457344845952174 0.23081855172708324
 0.10553465374152476 0.2665511480655463 0.2029963770681267 -0.7281882515193527 0.3457344845952186 0.2308185517270938 0.3457344845952527 0.23081855172715066
 0.3457344845951999 0.2308185517270283 0.34573448459521866 0.23081855172709376 0.2238777396409581 -0.7256990403225534 0.08465329116852084 0.26406193686862495
 0.3457344845952172 0.23081855172708313 0.34573448459525247 0.23081855172715057 0.08465329116852073 0.26406193686862484 0.22387773964109173 -0.7256990403224519
86000000.0 0.19886794199179791 -0.7279444548714732 0.10718206831254587 0.2673436503837421 0.3469749948477676 0.23030040224393353 0.34697499484778566 0.2303004022439888
 0.1071820683125459 0.267343650383742 0.19886794199196994 -0.7279444548713577 0.34697499484778666 0.2303004022439993 0.34697499484782146 0.2303004022440564
 0.34697499484776756 0.23030040224393364 0.3469749948477868 0.23030040224399942 0.21977743507697037 -0.7255745445408462 0.08627257522737211 0.26497374005310914
 0.3469749948477854 0.23030040224398854 0.3469749948478211 0.23030040224405626 0.08627257522737208 0.2649737400531089 0.21977743507710468 -0.7255745445407453
86500000.0 0.19476592645896146 -0.7276801665138858 0.10882854354380786 0.2681204990574036 0.34820276499855446 0.2297798337283099 0.34820276499857267 0.2297798337283652
 0.10882854354380787 0.26812049905740354 0.19476592645913413 -0.7276801665137708 0.34820276499857383 0.2297798337283759 0.34820276499860875 0.229779833728433
 0.3482027649985544 0.2297798337283099 0.3482027649985739 0.22977983372837593 0.21570203279219638 -0.7254292583289753 0.0878924372105716 0.26586959087248685
 0.3482027649985724 0.229779833728365 0.34820276499860847 0.22977983372843283 0.08789243721057154 0.2658695908724866 0.2157020327923311 -0.7254292583288744
87000000.0 0.190690242841144 -0.7273957770977096 0.11047389830223998 0.268881825012669 0.3494179294282466 0.2292569760425899 0.349417929428265 0.22925697604264547
 0.11047389830223998 0.26888182501266894 0.19069024284131725 -0.727395777097595 0.3494179294282663 0.229256976042656 0.3494179294283017 0.22925697604271328
 0.3494179294282464 0.22925697604258985 0.34941792942826644 0.22925697604265605 0.21165146347460734 -0.7252635545888336 0.08951267766877515 0.26674960250378676
 0.3494179294282648 0.22925697604264528 0.3494179294283014 0.22925697604271317 0.08951267766877508 0.26674960250378654 0.21165146347474273 -0.7252635545887328
87500000.0 0.18664080084090715 -0.7270916715615676 0.11211795571594951 0.269627760436517 0.3506206217215097 0.22873195556259585 0.3506206217215284 0.22873195556265144
 0.11211795571594953 0.26962776043651693 0.18664080084108112 -0.7270916715614534 0.35062062172153 0.22873195556266226 0.3506206217215655 0.22873195556271947
 0.3506206217215095 0.2287319555625957 0.35062062172153 0.22873195556266215 0.20762565519388887 -0.7250778010198868 0.09113310136296641 0.26761388989482965
 0.35062062172152825 0.22873195556265125 0.3506206217215652 0.22873195556271933 0.09113310136296636 0.26761388989482954 0.20762565519402457 -0.7250778010197861
88000000.0 0.1826175075983282 -0.7267682291920784 0.11376054312616143 0.27035843867711035 0.3518109746376927 0.22820489525755525 0.3518109746377118 0.22820489525761128
 0.11376054312616143 0.2703584386771103 0.18261750759850284 -0.7267682291919643 0.3518109746377133 0.22820489525762194 0.35181097463774935 0.2282048952576794
 0.3518109746376925 0.22820489525755516 0.35181097463771344 0.2282048952576219 0.20362453349806625 -0.7248723601726828 0.09275351722642199 0.26846256965770815
 0.3518109746377116 0.22820489525761106 0.351810974637749 0.22820489525767929 0.09275351722642197 0.268462569657708 0.20362453349820286 -0.7248723601725822
88500000.0 0.1786202677948218 -0.7264258236843883 0.11540149203811738 0.2710739941472216 0.35298912008346756 0.22767591476865529 0.35298912008348693 0.22767591476871138
 0.11540149203811738 0.27107399414722155 0.17862026779499707 -0.7264258236842742 0.3529891200834884 0.22767591476872212 0.35298912008352484 0.22767591476877966
 0.3529891200834674 0.22767591476865523 0.35298912008348865 0.22767591476872212 0.1996480215076235 -0.7246475895024362 0.09437373832531408 0.269295759965263
 0.3529891200834868 0.22767591476871119 0.35298912008352457 0.2276759147687795 0.09437373832531405 0.2692957599652629 0.19964802150776043 -0.7246475895023359
89000000.0 0.174648983754192 -0.7260648232028195 0.11704063807103013 0.2717745622306877 0.3541551890873255 0.22714513048613863 0.3541551890873453 0.22714513048619486
 0.11704063807103014 0.27177456223068763 0.17464898375436738 -0.7260648232027056 0.35415518908734694 0.22714513048620574 0.3541551890873834 0.2271451304862632
 0.35415518908732524 0.22714513048613857 0.3541551890873469 0.22714513048620566 0.19569604000716898 -0.7244038414226549 0.0959935818180516 0.27011358045051675
 0.3541551890873451 0.22714513048619475 0.35415518908738325 0.2271451304862631 0.09599358181805152 0.2701135804505166 0.1956960400073064 -0.7244038414225548
89500000.0 0.1707035555409827 -0.7256855904415954 0.11867782090718468 0.2724602791918387 0.35530931177585245 0.22661265562495192 0.35530931177587255 0.2266126556250084
 0.11867782090718465 0.2724602791918385 0.1707035555411588 -0.725685590441482 0.3553093117758743 0.22661265562501917 0.35530931177591113 0.22661265562507685
 0.3553093117758523 0.2266126556249518 0.3553093117758744 0.22661265562501912 0.19176850753470956 -0.7241414633587763 0.09761286891345611 0.270916152109013
 0.3553093117758722 0.22661265562500815 0.355309311775911 0.22661265562507674 0.09761286891345607 0.2709161521090129 0.19176850753484753 -0.7241414633586761
90000000.0 0.16678388105618555 -0.7252884826856031 0.12031288424027187 0.27313128208784465 0.35645161735170694 0.22607860029895352 0.3564516173517272 0.22607860029901014
 0.12031288424027185 0.2731312820878446 0.1667838810563625 -0.7252884826854901 0.3564516173517291 0.2260786002990211 0.3564516173517664 0.2260786002990788
 0.3564516173517067 0.22607860029895352 0.3564516173517292 0.22607860029902113 0.1878653404685924 -0.7238607978017847 0.09923142482786353 0.2717035972040198
 0.35645161735172703 0.22607860029901003 0.35645161735176617 0.2260786002990787 0.0992314248278635 0.2717035972040197 0.18786534046873085 -0.7238607978016849
90500000.0 0.16288985613036666 -0.7248738518711602 0.12194567572304112 0.27378770868392766 0.3575822340732313 0.22554307159369144 0.357582234073252 0.22554307159374806
 0.12194567572304113 0.2737877086839275 0.16288985613054405 -0.7248738518710472 0.3575822340732538 0.22554307159375903 0.35758223407329154 0.22554307159381676
 0.3575822340732311 0.22554307159369136 0.357582234073254 0.22554307159375916 0.18398645311216455 -0.7235621823617857 0.10084907874124163 0.2724760391745468
 0.3575822340732519 0.22554307159374798 0.3575822340732913 0.22554307159381673 0.10084907874124147 0.2724760391745467 0.18398645311230322 -0.7235621823616862
91000000.0 0.15902137461427324 -0.7244420446467508 0.12357604691434776 0.27442969737137884 0.3587012892356241 0.22500617363776199 0.35870128923564504 0.2250061736378188
 0.12357604691434779 0.27442969737137884 0.15902137461445143 -0.7244420446466381 0.35870128923564715 0.22500617363782985 0.358701289235685 0.2250061736378877
 0.35870128923562394 0.22500617363776182 0.35870128923564715 0.22500617363782982 0.18013175777621376 -0.7232459498215078 0.10246566375240568 0.27323360254612916
 0.3587012892356449 0.22500617363781872 0.35870128923568473 0.22500617363788764 0.1024656637524057 0.2732336025461291 0.18013175777635318 -0.7232459498214081
91500000.0 0.15517832846697935 -0.7239934024337017 0.12520385322567523 0.2750573870883293 0.3598089091536071 0.22446800767276304 0.3598089091536284 0.22446800767282016
 0.1252038532256752 0.2750573870883291 0.15517832846715743 -0.7239934024335893 0.35980890915363034 0.22446800767283107 0.35980890915366864 0.224468007672889
 0.35980890915360675 0.224468007672763 0.35980890915363045 0.22446800767283104 0.17630116485923458 -0.7229124281897078 0.10408101683341812 0.27397641284432867
 0.35980890915362806 0.22446800767281988 0.3598089091536684 0.22446800767288888 0.10408101683341804 0.27397641284432855 0.17630116485937444 -0.7229124281896084
92000000.0 0.15136060784162408 -0.7235282614867631 0.12682895386720086 0.27567091724321235 0.36090521914552126 0.2239286721218529 0.36090521914554313 0.22392867212191023
 0.1268289538672008 0.2756709172432123 0.15136060784180302 -0.7235282614866511 0.3609052191455451 0.22392867212192114 0.3609052191455838 0.2239286721219793
 0.3609052191455212 0.22392867212185294 0.36090521914554524 0.22392867212192127 0.17249458292557962 -0.722561940754461 0.10569497878324334 0.274704596510904
 0.3609052191455429 0.2239286721219101 0.3609052191455836 0.22392867212197912 0.10569497878324328 0.27470459651090373 0.17249458292572023 -0.7225619407543619
92500000.0 0.14756810116880514 -0.7230469529545702 0.12845121179347788 0.27627042764086646 0.3619903435187916 0.22338826265693007 0.3619903435188138 0.22338826265698752
 0.1284512117934778 0.2762704276408663 0.14756810116898492 -0.7230469529544583 0.361990343518816 0.22338826265699868 0.36199034351885484 0.22338826265705672
 0.3619903435187915 0.22338826265693001 0.3619903435188161 0.22338826265699874 0.16871191878154146 -0.722194806136309 0.10730739418073978 0.2754182808225987
 0.36199034351881343 0.22338826265698739 0.36199034351885473 0.22338826265705675 0.10730739418073973 0.2754182808225985 0.1687119187816823 -0.7221948061362098
93000000.0 0.14380069523767644 -0.7225498029399582 0.13007049364879747 0.27685605841121813 0.3630644055566957 0.22284687226444908 0.363064405556718 0.22284687226450675
 0.13007049364879747 0.27685605841121796 0.14380069523785685 -0.7225498029398466 0.3630644055567203 0.2228468722645178 0.3630644055567596 0.22284687226457606
 0.3630644055566954 0.22284687226444888 0.36306440555672037 0.2228468722645178 0.16495307754941818 -0.7218113383412467 0.1089181113370539 0.27611759381249973
 0.3630644055567179 0.2228468722645065 0.36306440555675934 0.22284687226457592 0.10891811133705392 0.2761175938124996 0.16495307754955973 -0.7218113383411477
93500000.0 0.1400582752748066 -0.7220371325601019 0.13168666971229448 0.27742794994049014 0.3641275275063816 0.2223045913098859 0.3641275275064043 0.2223045913099437
 0.13168666971229454 0.27742794994049 0.14005827527498738 -0.7220371325599908 0.36412752750640676 0.22230459130995475 0.3641275275064465 0.22230459131001307
 0.36412752750638144 0.22230459130988575 0.3641275275064069 0.22230459130995472 0.16121796273961 -0.7214118468135317 0.11052698224748915 0.27680266419391303
 0.36412752750640415 0.2223045913099434 0.3641275275064462 0.22230459131001293 0.11052698224748911 0.27680266419391286 0.16121796273975203 -0.7214118468134328
94000000.0 0.13634072502085032 -0.721509258006458 0.13329961384285588 0.2779862428048774 0.36517983056807873 0.22176150760087115 0.3651798305681016 0.221761507600929
 0.1332996138428559 0.2779862428048773 0.1363407250210315 -0.7215092580063472 0.36517983056810405 0.22176150760094016 0.36517983056814396 0.2217615076009984
 0.3651798305680784 0.22176150760087104 0.36517983056810416 0.22176150760094016 0.15750647632079204 -0.720996636488295 0.11213386254291233 0.27747362128670766
 0.3651798305681014 0.22176150760092878 0.3651798305681436 0.2217615076009983 0.11213386254291226 0.27747362128670755 0.15750647632093434 -0.7209966364881966
94500000.0 0.13264792680508697 -0.7209664906044886 0.13490920342388937 0.27853107770663704 0.36622143488544306 0.22121770644900723 0.3662214348854665 0.22121770644906527
 0.13490920342388935 0.27853107770663704 0.13264792680526852 -0.7209664906043779 0.3662214348854689 0.22121770644907637 0.36622143488550923 0.2212177064491348
 0.36622143488544295 0.2212177064490073 0.36622143488546893 0.2212177064490764 0.15381851878821437 -0.7205660078439379 0.11373861144076014 0.2781305949460797
 0.3662214348854664 0.22121770644906516 0.366221434885509 0.22121770644913463 0.11373861144076006 0.2781305949460795 0.15381851878835714 -0.7205660078438396
95000000.0 0.1289797616178712 -0.72040913687314 0.13651531930800567 0.2790625954125336 0.36725245953699237 0.2206732707303856 0.367252459537016 0.22067327073044363
 0.13651531930800564 0.2790625954125335 0.12897976161805347 -0.7204091368730293 0.36725245953701857 0.220673270730455 0.36725245953705926 0.22067327073051332
 0.36725245953699215 0.22067327073038548 0.3672524595370185 0.22067327073045498 0.15015398923016907 -0.7201202569542952 0.11534109169570586 0.2787737154936821
 0.3672524595370158 0.2206732707304435 0.36725245953705904 0.22067327073051324 0.11534109169570578 0.2787737154936819 0.15015398923031217 -0.720120256954197
95500000.0 0.12533610918105137 -0.7198374985840617 0.13811784576166541 0.2795809366945846 0.3682730225285718 0.2201282809448217 0.3682730225285958 0.22012828094488004
 0.1381178457616654 0.27958093669458445 0.12533610918123422 -0.7198374985839513 0.36827302252859834 0.22012828094489126 0.3682730225286393 0.22012828094494977
 0.36827302252857164 0.22012828094482167 0.3682730225285986 0.2201282809448913 0.14651278539267282 -0.7196596755405565 0.11694116955004209 0.2794031136510728
 0.3682730225285956 0.22012828094487982 0.3682730225286392 0.22012828094494966 0.11694116955004207 0.2794031136510726 0.14651278539281665 -0.7196596755404586
96000000.0 0.12171684801639897 -0.7192518728205425 0.13971667040984004 0.280086242273055 0.36928324078681046 0.21958281527382778 0.36928324078683467 0.2195828152738862
 0.13971667040983998 0.28008624227305484 0.12171684801658195 -0.7192518728204325 0.36928324078683733 0.21958281527389742 0.3692832407868786 0.21958281527395596
 0.36928324078681024 0.2195828152738277 0.36928324078683744 0.21958281527389745 0.14289480374240232 -0.7191845510229254 0.1185387146838344 0.2800189204754312
 0.36928324078683444 0.21958281527388612 0.3692832407868784 0.2195828152739559 0.11853871468383433 0.2800189204754311 0.14289480374254668 -0.7191845510228273
96500000.0 0.11812185551209936 -0.7186525520361466 0.14131168418073 0.2805786527616399 0.3702832301535148 0.21903694963733827 0.37028323015353937 0.21903694963739687
 0.14131168418073 0.2805786527616398 0.11812185551228296 -0.7186525520360368 0.3702832301535422 0.21903694963740813 0.3702832301535837 0.2190369496374667
 0.3702832301535145 0.2190369496373382 0.3702832301535422 0.21903694963740813 0.1392999395279321 -0.7186951665720047 0.12013360016489501 0.28062126729749115
 0.3702832301535391 0.21903694963739664 0.37028323015358344 0.21903694963746662 0.12013360016489498 0.28062126729749104 0.13929993952807682 -0.7186951665719069
97000000.0 0.11455100798735074 -0.7180398241130342 0.14290278125058734 0.281058308614786 0.37127310538095987 0.21849075774920965 0.3712731053809849 0.2184907577492684
 0.14290278125058725 0.2810583086147859 0.11455100798753513 -0.7180398241129247 0.3712731053809876 0.21849075774927978 0.3712731053810295 0.2184907577493384
 0.37127310538095976 0.2184907577492097 0.37127310538098773 0.2184907577492798 0.13572808683930818 -0.7181918011598974 0.1217257023986279 0.28121028566164263
 0.37127310538098474 0.2184907577492683 0.37127310538102926 0.21849075774933827 0.12172570239862784 0.2812102856616425 0.13572808683945323 -0.7181918011598001
97500000.0 0.11100418075511344 -0.717413972419948 0.14448985898868003 0.2815253500770976 0.3722529801280319 0.21794431117151172 0.37225298012805697 0.21794431117157054
 0.14448985898867994 0.2815253500770974 0.11100418075529797 -0.717413972419839 0.37225298012805996 0.21794431117158183 0.37225298012810204 0.2179443111716405
 0.3722529801280316 0.21794431117151156 0.3722529801280601 0.2179443111715818 0.13217913866600065 -0.7176747296110103 0.12331490107779063 0.2817861072681528
 0.37225298012805674 0.2179443111715705 0.37225298012810193 0.21794431117164054 0.12331490107779067 0.2817861072681529 0.13217913866614633 -0.7176747296109125
98000000.0 0.10748124818305627 -0.7167752758698537 0.14607281790243914 0.2819799171347712 0.3732229669571804 0.21739767936762844 0.37322296695720586 0.2173976793676875
 0.14607281790243912 0.28197991713477116 0.10748124818324135 -0.7167752758697447 0.37322296695720897 0.21739767936769888 0.37322296695725143 0.21739767936775767
 0.37322296695718016 0.2173976793676284 0.3732229669572089 0.2173976793676988 0.12865298695327618 -0.7171442226525456 0.12490107913221675 0.2823488639174562
 0.37322296695720575 0.21739767936768745 0.37322296695725127 0.21739767936775756 0.12490107913221685 0.2823488639174562 0.12865298695342248 -0.7171442226524483
98500000.0 0.10398208375274226 -0.7161240089772166 0.14765156158282444 0.28242214946901073 0.37418317733214407 0.21685092975419126 0.37418317733217005 0.21685092975425033
 0.14765156158282447 0.28242214946901056 0.10398208375292808 -0.716124008977108 0.37418317733217304 0.21685092975426176 0.3741831773322159 0.21685092975432044
 0.3741831773321438 0.2168509297541911 0.37418317733217316 0.21685092975426176 0.12514952265702442 -0.7166005469646799 0.12648412267854048 0.282898687456467
 0.37418317733216977 0.21685092975425005 0.3741831773322157 0.21685092975432035 0.1264841226785404 0.28289868745646685 0.1251495226571707 -0.7166005469645831
99000000.0 0.10050656011710021 -0.7154604419149062 0.14922599664994154 0.28285218641136783 0.37513372161640623 0.21630412775185834 0.37513372161643244 0.2163041277519176
 0.1492259966499415 0.28285218641136767 0.10050656011728643 -0.7154604419147981 0.3751337216164355 0.216304127751929 0.37513372161647857 0.21630412775198773
 0.37513372161640596 0.21630412775185812 0.3751337216164356 0.21630412775192895 0.12166863579707622 -0.7160439652304098 0.12806392096996333 0.2834357097268642
 0.37513372161643216 0.21630412775191735 0.37513372161647857 0.21630412775198765 0.12806392096996325 0.2834357097268642 0.12166863579722328 -0.7160439652303129
99500000.0 0.09705454915621319 -0.7147848405707098 0.15079603269894531 0.28327016690095913 0.3760747090723474 0.21575733683496515 0.3760747090723741 0.2157573368350246
 0.1507960326989453 0.283270166900959 0.09705454915639976 -0.7147848405706014 0.3760747090723773 0.21575733683503598 0.3760747090724208 0.21575733683509477
 0.3760747090723472 0.21575733683496512 0.3760747090723772 0.21575733683503595 0.11821021550905393 -0.7154747361850615 0.1296403663461021 0.28396006251530415
 0.37607470907237395 0.2157573368350244 0.37607470907242063 0.21575733683509474 0.12964036634610204 0.2839600625153041 0.11821021550920152 -0.715474736184965
100000000.0 0.09362592203147856 -0.7140974666034495 0.15236158224625668 0.28367622944350773 0.37700624786105846 0.2152106185800615 0.37700624786108533 0.21521061858012094
 0.1523615822462566 0.2836762294435077 0.09362592203166573 -0.7140974666033416 0.37700624786108866 0.2152106185801325 0.3770062478611324 0.21521061858019133
 0.37700624786105824 0.21521061858006146 0.3770062478610887 0.21521061858013252 0.11477415009478345 -0.7148931146654574 0.1312133541829495 0.28447187750550895
 0.3770062478610851 0.21521061858012086 0.3770062478611322 0.21521061858019125 0.13121335418294947 0.2844718775055088 0.1147741500949313 -0.7148931146653609
100500000.0 0.09022054923816764 -0.7133985774986907 0.15392256067612523 0.28407051207216244 0.37792844504277917 0.2146640327133556 0.3779284450428063 0.21466403271341525
 0.15392256067612523 0.28407051207216244 0.09022054923835536 -0.713398577498583 0.37792844504280976 0.21466403271342668 0.37792844504285383 0.21466403271348566
 0.37792844504277895 0.21466403271335546 0.3779284450428097 0.2146640327134266 0.1113603270713039 -0.7142993516587259 0.13278278284298664 0.28497128623219053
 0.3779284450428062 0.21466403271341505 0.3779284450428536 0.21466403271348547 0.13278278284298659 0.2849712862321905 0.11136032707145233 -0.7142993516586295
101000000.0 0.08683830065643029 -0.7126884266240283 0.15547888618755906 0.2844531523100416 0.37884140657793064 0.21411763715708568 0.3788414065779581 0.21411763715714544
 0.15547888618755898 0.2844531523100415 0.08683830065661846 -0.7126884266239208 0.37884140657796145 0.21411763715715698 0.3788414065780059 0.21411763715721596
 0.37884140657793036 0.21411763715708568 0.3788414065779616 0.214117637157157 0.10796863321851455 -0.7136936943507527 0.13434855362547238 0.28545842003675914
 0.3788414065779579 0.2141176371571454 0.37884140657800575 0.21411763715721588 0.13434855362547232 0.285458420036759 0.1079686332186633 -0.7136936943506563
101500000.0 0.08347904560077847 -0.711967263283945 0.15703047974165088 0.2848242871344576 0.3797452373287101 0.213571488074837 0.37974523732873805 0.2135714880748969
 0.15703047974165077 0.28482428713445745 0.08347904560096688 -0.7119672632838382 0.37974523732874127 0.2135714880749083 0.3797452373287861 0.21357148807496731
 0.37974523732870985 0.213571488074837 0.3797452373287415 0.21357148807490836 0.10459895462548045 -0.7130763861742658 0.13591057071694632 0.2859334100247715
 0.37974523732873766 0.21357148807489673 0.37974523732878596 0.21357148807496726 0.1359105707169462 0.28593341002477135 0.10459895462562974 -0.7130763861741698
102000000.0 0.08014265286808951 -0.7112353327742339 0.15857726500932198 0.2851840529427738 0.38064004106121874 0.2130256399158242 0.38064004106124677 0.21302563991588425
 0.1585772650093219 0.28518405294277366 0.08014265286827844 -0.7112353327741271 0.3806400410612504 0.21302563991589565 0.38064004106129545 0.21302563991595475
 0.38064004106121835 0.21302563991582402 0.38064004106125043 0.21302563991589565 0.10125117673544005 -0.7124476668565463 0.1374687411419686 0.28639638702507897
 0.3806400410612465 0.21302563991588402 0.3806400410612954 0.2130256399159547 0.1374687411419686 0.2863963870250789 0.10125117673558993 -0.7124476668564502
102500000.0 0.07682899078416323 -0.7104928764359721 0.16011916831950407 0.28553258551984445 0.38152592044809014 0.21248014545815871 0.3815259204481186 0.21248014545821878
 0.160119168319504 0.28553258551984445 0.07682899078435264 -0.7104928764358652 0.3815259204481223 0.2124801454582304 0.3815259204481677 0.2124801454582895
 0.38152592044809003 0.21248014545815874 0.3815259204481224 0.21248014545823043 0.09792518438954022 -0.711807772466758 0.13902297471412442 0.28684748155062356
 0.38152592044811856 0.2124801454582187 0.38152592044816735 0.2124801454582893 0.13902297471412434 0.2868474815506234 0.09792518438969015 -0.7118077724666624
103000000.0 0.07353792724886804 -0.7097401317090449 0.16165611860778203 0.2858700200069973 0.3824029770715984 0.21193505585111955 0.3824029770716272 0.21193505585117972
 0.16165611860778203 0.28587002000699724 0.07353792724905804 -0.7097401317089387 0.382402977071631 0.21193505585119132 0.38240297707167653 0.2119350558512503
 0.3824029770715982 0.21193505585111955 0.38240297707163107 0.21193505585119132 0.09462086186932807 -0.7111569354628996 0.1405731839873194 0.287286823760845
 0.38240297707162696 0.21193505585117955 0.38240297707167636 0.21193505585125033 0.14057318398731936 0.28728682376084497 0.09462086186947835 -0.711156935462804
103500000.0 0.07026932977991256 -0.7089773321852086 0.1631880473655123 0.2861964908725088 0.3832713114272106 0.21139042065644664 0.3832713114272398 0.2113904206565071
 0.1631880473655123 0.2861964908725087 0.0702693297801028 -0.7089773321851028 0.38327131142724347 0.21139042065651845 0.38327131142728954 0.21139042065657765
 0.3832713114272104 0.21139042065644664 0.3832713114272436 0.21139042065651847 0.09133809293803516 -0.7104953847383602 0.1421192842073869 0.28771454342565317
 0.3832713114272395 0.21139042065650684 0.38327131142728926 0.2113904206565775 0.14211928420738681 0.28771454342565306 0.09133809293818614 -0.7104953847382647
104000000.0 0.06702306555527378 -0.7082047076606885 0.16471488858943784 0.2865121318835314 0.38413102292756685 0.2108462878886762 0.38413102292759627 0.21084628788873663
 0.1647148885894378 0.2865121318835314 0.06702306555546454 -0.7082047076605826 0.3841310229276 0.21084628788874824 0.3841310229276465 0.21084628788880738
 0.3841310229275665 0.2108462878886761 0.3841310229276 0.21084628788874812 0.0880767608806776 -0.7098233456680868 0.14366119326403104 0.28813076989092273
 0.38413102292759593 0.21084628788873652 0.38413102292764617 0.21084628788880722 0.143661193264031 0.2881307698909226 0.08807676088082916 -0.7098233456679917
104500000.0 0.06379900145431928 -0.707422484188304 0.16623657873181183 0.28681707607942886 0.3849822099068566 0.21030270405453605 0.3849822099068863 0.2103027040545965
 0.16623657873181188 0.2868170760794288 0.06379900145451042 -0.7074224841881985 0.38498220990689025 0.21030270405460816 0.3849822099069369 0.21030270405466722
 0.38498220990685644 0.21030270405453594 0.38498220990689025 0.21030270405460802 0.08483674854300302 -0.7091410401543539 0.1451988316431251 0.28853563204547167
 0.38498220990688614 0.21030270405459642 0.38498220990693655 0.21030270405466717 0.145198831643125 0.28853563204547167 0.08483674854315482 -0.7091410401542588
105000000.0 0.06059700409765141 -0.7066308841291193 0.16775305665104653 0.2871114557464764 0.3858249696255727 0.20975971419142048 0.3858249696256027 0.20975971419148104
 0.16775305665104648 0.28711145574647634 0.06059700409784296 -0.7066308841290138 0.38582496962560664 0.2097597141914927 0.38582496962565355 0.20975971419155184
 0.3858249696255725 0.20975971419142048 0.38582496962560675 0.2097597141914928 0.08161793836931235 -0.70844868667213 0.14673212237938288 0.28892925828948046
 0.3858249696256025 0.20975971419148093 0.38582496962565344 0.20975971419155184 0.14673212237938285 0.28892925828948035 0.08161793836946424 -0.7084486866720353
105500000.0 0.05741693988570763 -0.7058301262036109 0.1692642635629004 0.2873954023938864 0.38665939827561696 0.20921736190496248 0.38665939827564744 0.20921736190502316
 0.1692642635629004 0.2873954023938863 0.05741693988590002 -0.7058301262035058 0.38665939827565154 0.20921736190503484 0.3866593982756988 0.20921736190509402
 0.3866593982756168 0.20921736190496248 0.38665939827565166 0.2092173619050349 0.07842021243918097 -0.7077465003140436 0.14826099100942453 0.2893117765043122
 0.3866593982756472 0.20921736190502305 0.38665939827569845 0.20921736190509396 0.14826099100942441 0.28931177650431206 0.07842021243933342 -0.7077465003139488
106000000.0 0.05425867503614845 -0.705020425542353 0.17077014299221435 0.2876690467311149 0.38748559098573926 0.2086756894057201 0.38748559098577007 0.2086756894057808
 0.1707701429922143 0.28766904673111465 0.05425867503634102 -0.7050204255422481 0.38748559098577406 0.20867568940579254 0.3874855909858216 0.20867568940585163
 0.3874855909857391 0.20867568940571998 0.3874855909857742 0.2086756894057926 0.07524345250311194 -0.707034692834939 0.14978536552524824 0.2896833140236943
 0.38748559098576973 0.2086756894057806 0.3874855909858214 0.20867568940585163 0.14978536552524813 0.2896833140236942 0.07524345250326456 -0.707034692834845
106500000.0 0.05112207562006019 -0.7042019937362091 0.17227064072520887 0.28793251864641545 0.388303641827286 0.2081347375449988 0.3883036418273169 0.20813473754505973
 0.17227064072520884 0.2879325186464153 0.051122075620252845 -0.7042019937361048 0.38830364182732097 0.20813473754507128 0.38830364182736876 0.20813473754513043
 0.3883036418272857 0.20813473754499873 0.38830364182732113 0.2081347375450713 0.07208754001713819 -0.7063134726960265 0.15130517632812793 0.29004399760622573
 0.38830364182731675 0.20813473754505962 0.3883036418273686 0.20813473754513048 0.1513051763281279 0.29004399760622573 0.0720875400172915 -0.7063134726959321
107000000.0 0.04800700759700642 -0.703375038886037 0.17376570476235131 0.288185947186595 0.38911364382024105 0.20759454584982376 0.3891136438202724 0.2075945458498847
 0.1737657047623513 0.2881859471865949 0.04800700759719982 -0.7033750388859328 0.38911364382027663 0.20759454584989648 0.3891136438203248 0.20759454584995563
 0.3891136438202408 0.20759454584982368 0.38911364382027663 0.20759454584989645 0.06895235617640773 -0.7055830451086159 0.15282035618294726 0.2903939534091672
 0.3891136438202722 0.20759454584988454 0.38911364382032454 0.2075945458499556 0.15282035618294723 0.29039395340916707 0.06895235617656144 -0.7055830451085221
107500000.0 0.04491333684895475 -0.7025397656518938 0.17525528527180267 0.2884294605379382 0.38991568893954076 0.2070551525570816 0.38991568893957246 0.20705515255714255
 0.17525528527180262 0.288429460537938 0.044913336849148305 -0.70253976565179 0.38991568893957673 0.2070551525571542 0.38991568893962497 0.20705515255721338
 0.38991568893954054 0.20705515255708146 0.38991568893957684 0.20705515255715423 0.06583778194776939 -0.7048436120774425 0.15433084017298535 0.2907333069634798
 0.3899156889395722 0.2070551525571424 0.3899156889396249 0.20705515255721335 0.15433084017298526 0.2907333069634797 0.06583778194792324 -0.7048436120773486
108000000.0 0.041840929213105886 -0.7016963753017469 0.17673933454345073 0.28866318600825985 0.3907098681216408 0.20651659464684824 0.39070986812167285 0.20651659464690936
 0.17673933454345064 0.2886631860082597 0.041840929213299786 -0.7016963753016433 0.39070986812167713 0.2065165946469209 0.39070986812172587 0.20651659464698016
 0.3907098681216406 0.20651659464684818 0.3907098681216773 0.206516594646921 0.06274369810138859 -0.7040953724435722 0.15583656565516493 0.2910621831500781
 0.3907098681216725 0.20651659464690922 0.39070986812172553 0.2065165946469801 0.1558365656551648 0.2910621831500779 0.06274369810154304 -0.7040953724434785
108500000.0 0.03878965051365516 -0.700845065759684 0.17821780694353692 0.288887250010052 0.3914962712713226 0.20597890787492157 0.3914962712713549 0.20597890787498277
 0.1782178069435369 0.2888872500100519 0.038789650513849555 -0.7008450657595806 0.39149627127135916 0.2059789078749944 0.39149627127140835 0.20597890787505363
 0.3914962712713224 0.2059789078749214 0.3914962712713594 0.2059789078749944 0.059669985241414425 -0.7033385219268948 0.15733747221577468 0.2913807061772558
 0.3914962712713546 0.20597890787498255 0.391496271271408 0.20597890787505355 0.15733747221577457 0.2913807061772557 0.05966998524156918 -0.7033385219268014
109000000.0 0.03575936659251327 -0.699986031653621 0.17969065886988364 0.28910177804468784 0.39227498726871995 0.20544212680457305 0.39227498726875243 0.20544212680463445
 0.17969065886988353 0.2891017780446877 0.03575936659270796 -0.699986031653518 0.3922749872687569 0.20544212680464605 0.39227498726880616 0.2054421268047053
 0.3922749872687196 0.20544212680457297 0.392274987268757 0.205442126804646 0.0566165238357187 -0.7025732531681955 0.1588335016266749 0.29168899955925504
 0.39227498726875215 0.20544212680463428 0.3922749872688059 0.20544212680470528 0.1588335016266748 0.291688999559255 0.056616523835874046 -0.7025732531681019
109500000.0 0.03274994333901069 -0.6991194643625097 0.18115784870772442 0.2893068946876481 0.3930461039765503 0.20490628483753826 0.39304610397658324 0.20490628483759968
 0.1811578487077244 0.2893068946876479 0.03274994333920582 -0.6991194643624071 0.3930461039765877 0.20490628483761125 0.3930461039766374 0.20490628483767045
 0.39304610397655004 0.2049062848375382 0.3930461039765879 0.20490628483761128 0.05358319424473591 -0.7017997557708099 0.16032459780199593 0.291987186095941
 0.393046103976583 0.20490628483759943 0.39304610397663725 0.20490628483767043 0.16032459780199587 0.2919871860959408 0.053583194244891434 -0.7017997557707168
110000000.0 0.029761246718613403 -0.698245552063039 0.18261933678614534 0.289502723574737 0.39380970824753825 0.20437141424425934 0.3938097082475714 0.20437141424432093
 0.18261933678614517 0.28950272357473683 0.029761246718808938 -0.6982455520629366 0.39380970824757594 0.20437141424433253 0.3938097082476259 0.20437141424439187
 0.39380970824753786 0.20437141424425928 0.39380970824757605 0.20437141424433247 0.05056987674941792 -0.70101821634186 0.16181070675533743 0.2922753878535505
 0.3938097082475711 0.20437141424432065 0.39380970824762557 0.20437141424439165 0.16181070675533735 0.29227538785355034 0.050569876749573875 -0.701018216341767
110500000.0 0.02679314280067514 -0.6973644797758336 0.18407508533513675 0.2896893873892535 0.3945658859320109 0.20383754619339925 0.39456588593204445 0.20383754619346084
 0.18407508533513667 0.28968938738925326 0.026793142800871216 -0.6973644797757313 0.3945658859320491 0.20383754619347252 0.3945658859320993 0.20383754619353173
 0.3945658859320107 0.20383754619339917 0.3945658859320492 0.20383754619347247 0.047576451578332644 -0.7002288185330685 0.1632917765574762 0.2925537261464812
 0.3945658859320443 0.20383754619346067 0.3945658859320991 0.20383754619353164 0.16329177655747615 0.2925537261464811 0.04757645157848904 -0.7002288185329757
111000000.0 0.023845497785250018 -0.6964764294111465 0.18552505844326278 0.2898670078500862 0.3953147218856603 0.2033047107806401 0.3953147218856941 0.20330471078070173
 0.1855250584432627 0.28986700785008607 0.023845497785446118 -0.6964764294110444 0.3953147218856987 0.20330471078071347 0.3953147218857492 0.20330471078077264
 0.3953147218856601 0.2033047107806401 0.3953147218856988 0.2033047107807134 0.04460279893392023 -0.6994317430811554 0.16476775729458917 0.29282232152008797
 0.3953147218856939 0.2033047107807015 0.39531472188574895 0.20330471078077256 0.16476775729458906 0.2928223215200878 0.04460279893407684 -0.6994317430810628
111500000.0 0.02091817802898839 -0.6955815798140479 0.18696922201594518 0.29003570570070003 0.39605629997744934 0.20277293705678467 0.39605629997748343 0.20277293705684638
 0.18696922201594518 0.2900357057007 0.02091817802918504 -0.695581579813946 0.3960562999774882 0.20277293705685806 0.39605629997753894 0.20277293705691732
 0.3960562999774491 0.2027729370567846 0.3960562999774882 0.20277293705685806 0.04164879901793547 -0.6986271678478124 0.1662386010269949 0.2930812937344574
 0.39605629997748315 0.20277293705684618 0.3960562999775387 0.2027729370569172 0.16623860102699486 0.29308129373445735 0.04164879901809239 -0.6986271678477199
112000000.0 0.018011050070144488 -0.6946801068091073 0.1884075437343697 0.2901956006989838 0.39679070309765857 0.2022422530551736 0.396790703097693 0.2022422530552353
 0.18840754373436963 0.29019560069898365 0.018011050070341428 -0.6946801068090062 0.39679070309769787 0.2022422530552469 0.3967907030977489 0.20224225305530613
 0.39679070309765835 0.2022422530551734 0.3967907030976981 0.2022422530552469 0.03871433205608718 -0.6978152678592591 0.16770426174842373 0.2933307617491281
 0.3967907030976929 0.20224225305523522 0.39679070309774883 0.20224225305530616 0.16770426174842373 0.29333076174912803 0.03871433205624471 -0.6978152678591666
112500000.0 0.015123980652712317 -0.6937721832445737 0.18983999301500895 0.29034681160792875 0.3975180131660547 0.20171268581843496 0.3975180131660893 0.20171268581849683
 0.1898399930150089 0.2903468116079286 0.015123980652909765 -0.6937721832444724 0.3975180131660943 0.20171268581850854 0.3975180131661455 0.20171268581856777
 0.39751801316605445 0.2017126858184349 0.3975180131660944 0.20171268581850846 0.03579927832190333 -0.6969962153453781 0.16916469534581458 0.29357084370872594
 0.39751801316608903 0.20171268581849677 0.3975180131661454 0.20171268581856783 0.16916469534581463 0.2935708437087259 0.03579927832206113 -0.6969962153452857
113000000.0 0.012256836749716964 -0.6928579790360478 0.19126654096976758 0.29048945618710953 0.3982383111401725 0.20118426142458243 0.39823831114020747 0.20118426142464432
 0.19126654096976753 0.29048945618710953 0.01225683674991495 -0.6928579790359467 0.39823831114021235 0.20118426142465629 0.3982383111402641 0.20118426142471543
 0.3982383111401724 0.20118426142458246 0.39823831114021263 0.20118426142465617 0.03290351815983343 -0.6961701797784331 0.17061985955964784 0.29380165692948784
 0.39823831114020747 0.20118426142464424 0.3982383111402638 0.20118426142471535 0.1706198595596478 0.29380165692948773 0.03290351815999147 -0.6961701797783414
113500000.0 0.009409485585680779 -0.6919376612096552 0.19268716036674702 0.29062365118493844 0.3989516770237007 0.20065700501247286 0.39895167702373596 0.2006570050125348
 0.19268716036674693 0.2906236511849384 0.009409485585878988 -0.6919376612095546 0.39895167702374107 0.20065700501254657 0.3989516770237929 0.20065700501260578
 0.3989516770237003 0.20065700501247277 0.398951677023741 0.20065700501254646 0.030026932007611112 -0.6953373279113673 0.17206971394481319 0.29402331788664315
 0.3989516770237357 0.20065700501253467 0.3989516770237925 0.20065700501260575 0.17206971394481316 0.29402331788664304 0.030026932007769652 -0.6953373279112753
114000000.0 0.006581794658288233 -0.6910113939447161 0.19410182559162756 0.29074951233166396 0.3996581898749559 0.20013094080664132 0.3996581898749918 0.20013094080670338
 0.19410182559162753 0.29074951233166385 0.006581794658486704 -0.6910113939446155 0.3996581898749966 0.20013094080671504 0.3996581898750491 0.2001309408067743
 0.3996581898749557 0.2001309408066413 0.3996581898749968 0.20013094080671506 0.027169400417895125 -0.6944978238156828 0.17351421983201704 0.2942359422026237
 0.3996581898749916 0.20013094080670316 0.39965818987504886 0.20013094080677418 0.17351421983201698 0.29423594220262356 0.027169400418054157 -0.6944978238155914
114500000.0 0.0037736317592680377 -0.6900793386159115 0.19551051260967117 0.2908671543330901 0.4003579278154442 0.19960609214152703 0.40035792781548013 0.199606092141589
 0.19551051260967114 0.29086715433309 0.0037736317594668565 -0.6900793386158113 0.40035792781548524 0.19960609214160072 0.4003579278155378 0.19960609214165992
 0.4003579278154439 0.19960609214152691 0.40035792781548524 0.1996060921416006 0.024330804079204255 -0.6936518289189085 0.1749533402897314 0.2944396446360798
 0.4003579278154798 0.1996060921415888 0.40035792781553736 0.19960609214165975 0.1749533402897313 0.2944396446360796 0.024330804079363375 -0.6936518289188172
115000000.0 0.0009848649945143428 -0.6891416538349556 0.19691319892833734 0.290976690864986 0.40105096803848755 0.199082481485102 0.4010509680385238 0.19908248148516403
 0.19691319892833728 0.290976690864986 0.0009848649947133876 -0.6891416538348559 0.4010509680385289 0.19908248148517585 0.4010509680385816 0.19908248148523489
 0.40105096803848744 0.19908248148510216 0.40105096803852913 0.1990824814851759 0.0215110238361649 -0.6927995020416454 0.17638704008668346 0.2946345390716689
 0.40105096803852364 0.199082481485164 0.40105096803858137 0.19908248148523486 0.17638704008668327 0.2946345390716687 0.021511023836324045 -0.6927995020415544
115500000.0 -0.001784637196533286 -0.6881984954917649 0.19830986356051516 0.29107823456816345 0.40173738681792204 0.19856013046191884 0.40173738681795856 0.19856013046198095
 0.19830986356051505 0.2910782345681633 -0.0017846371963336563 -0.688198495491665 0.40173738681796384 0.19856013046199275 0.4017373868180167 0.19856013046205193
 0.4017373868179217 0.19856013046191875 0.4017373868179639 0.19856013046199278 0.018709940709088282 -0.6919409994342057 0.17781528565488994 0.2948207385105972
 0.40173738681795834 0.19856013046198093 0.40173738681801663 0.19856013046205193 0.17781528565488997 0.2948207385105972 0.018709940709248217 -0.6919409994341148
116000000.0 -0.004535006022230878 -0.6872500167951351 0.1997004869883656 0.29117189704419516 0.4024172595168451 0.19803905987558904 0.4024172595168819 0.19803905987565126
 0.1997004869883655 0.291171897044195 -0.004535006022030827 -0.6872500167950356 0.4024172595168873 0.19803905987566303 0.4024172595169405 0.1980390598757222
 0.40241725951684476 0.19803905987558898 0.40241725951688745 0.19803905987566306 0.01592743591289653 -0.6910764748128323 0.17923804505323454 0.29499835506188515
 0.4024172595168817 0.19803905987565104 0.40241725951694035 0.19803905987572218 0.1792380450532344 0.294998355061885 0.01592743591305677 -0.6910764748127415
116500000.0 -0.007266372320774583 -0.6862963683129234 0.20108505112777278 0.29125778885175163 0.403090660596413 0.1975192897307058 0.40309066059645016 0.1975192897307681
 0.20108505112777272 0.2912577888517515 -0.007266372320574254 -0.6862963683128243 0.4030906605964556 0.1975192897307798 0.403090660596509 0.19751928973083896
 0.4030906605964128 0.19751928973070573 0.40309066059645565 0.19751928973077984 0.013163390875407315 -0.6902060793955116 0.1806552879315871 0.2951674999343325
 0.4030906605964498 0.19751928973076793 0.4030906605965088 0.19751928973083896 0.18065528793158697 0.29516749993433244 0.01316339087556787 -0.6902060793954209
117000000.0 -0.009978866542928623 -0.6853376980117383 0.20246353929339975 0.29133601950353155 0.403757663624676 0.1970008392542242 0.40375766362471355 0.19700083925428652
 0.20246353929339975 0.2913360195035315 -0.00997886654272806 -0.6853376980116392 0.403757663624719 0.1970008392542982 0.4037576636247728 0.19700083925435743
 0.4037576636246759 0.1970008392542242 0.4037576636247191 0.19700083925429832 0.010417687254999482 -0.6893299619373746 0.1820669854954679 0.295328283429161
 0.40375766362471344 0.19700083925428638 0.4037576636247725 0.19700083925435732 0.18206698549546788 0.2953282834291609 0.010417687255160383 -0.6893299619372845
117500000.0 -0.012672618735417864 -0.6843741512961403 0.2038359361643464 0.2914066974637623 0.4044183412854471 0.1964837269163107 0.4044183412854849 0.19648372691637303
 0.2038359361643464 0.2914066974637622 -0.01267261873521714 -0.6843741512960415 0.40441834128549026 0.1964837269163848 0.4044183412855443 0.19648372691644386
 0.40441834128544696 0.19648372691631064 0.4044183412854903 0.19648372691638474 0.007690206957672268 -0.6884482687656925 0.18347311047125234 0.2954808149333074
 0.4044183412854846 0.19648372691637297 0.40441834128554405 0.19648372691644386 0.18347311047125228 0.2954808149333074 0.007690206957833635 -0.6884482687656022
118000000.0 -0.015347758524970438 -0.6834058710473571 0.20520222775040461 0.29146993014625083 0.4050727653871938 0.1959679704506757 0.40507276538723164 0.1959679704507381
 0.20520222775040461 0.2914699301462508 -0.015347758524769245 -0.6834058710472585 0.4050727653872375 0.19596797045074993 0.4050727653872916 0.1959679704508089
 0.4050727653871936 0.1959679704506757 0.4050727653872374 0.1959679704507499 0.0049808321535138615 -0.687561143814462 0.18487363707191667 0.2956252029133489
 0.4050727653872316 0.19596797045073805 0.40507276538729137 0.1959679704508089 0.18487363707191665 0.29562520291334893 0.0049808321536753 -0.687561143814372
118500000.0 -0.018004415102987142 -0.6824329976615127 0.2065624013589069 0.29152582391296067 0.4057210068719508 0.19545358687439957 0.4057210068719891 0.19545358687446202
 0.20656240135890672 0.29152582391296045 -0.01800441510278548 -0.6824329976614145 0.40572100687199464 0.19545358687447384 0.40572100687204926 0.19545358687453293
 0.40572100687195034 0.19545358687439945 0.40572100687199475 0.19545358687447378 0.002289445292593496 -0.6866687286585925 0.1862685409633223 0.29576155491003325
 0.4057210068719886 0.19545358687446188 0.405721006872049 0.19545358687453285 0.18626854096332218 0.29576155491003314 0.0022894452927555153 -0.6866687286585027
119000000.0 -0.020642717210828578 -0.6814556690873765 0.2079164455621632 0.29157448407309466 0.40636313582424277 0.19494059250726545 0.4063631358242814 0.19494059250732795
 0.2079164455621632 0.2915744840730946 -0.020642717210626615 -0.6814556690872785 0.4063631358242871 0.1949405925073397 0.40636313582434197 0.1949405925073988
 0.40636313582424255 0.1949405925072654 0.4063631358242872 0.1949405925073397 -0.00038407087970636204 -0.6857711625476862 0.18765779923103712 0.2958899775333971
 0.40636313582428113 0.19494059250732773 0.40636313582434175 0.19494059250739865 0.187657799231037 0.29588997753339685 -0.00038407087954414685 -0.6857711625475965
119500000.0 -0.023262793125695864 -0.6804740208636328 0.20926435016548345 0.2916160148826653 0.4069992214800159 0.19442900299060947 0.40699922148005485 0.19442900299067195
 0.20926435016548336 0.29161601488266514 -0.02326279312549352 -0.6804740208635353 0.40699922148006046 0.19442900299068389 0.40699922148011575 0.19442900299074273
 0.4069992214800156 0.1944290029906094 0.4069992214800606 0.19442900299068386 -0.0030398333079074196 -0.6848685824394214 0.18904139034769135 0.29601057645844664
 0.4069992214800545 0.19442900299067173 0.40699922148011547 0.19442900299074264 0.18904139034769132 0.2960105764584465 -0.0030398333077451345 -0.6848685824393321
120000000.0 -0.025864770647092562 -0.6794881861556752 0.21060610617577694 0.29165051954452803 0.40762933223556713 0.19391883330569998 0.4076293322356065 0.19391883330576257
 0.21060610617577688 0.29165051954452786 -0.025864770646889964 -0.6794881861555777 0.407629332235612 0.19391883330577428 0.40762933223566755 0.19391883330583337
 0.4076293322355671 0.19391883330570003 0.40762933223561226 0.1939188333057744 -0.0056779586121847156 -0.6839611230325384 0.1904192941408655 0.2961234564213841
 0.40762933223560616 0.19391883330576234 0.4076293322356673 0.19391883330583318 0.19041929414086534 0.2961234564213838 -0.005677958612022184 -0.6839611230324492
120500000.0 -0.028448777083852694 -0.678498295791927 0.21194170577072693 0.29167810020886437 0.4082535356564717 0.19341009779165863 0.40825353565651123 0.19341009779172122
 0.21194170577072696 0.29167810020886437 -0.02844877708364981 -0.6784982957918297 0.408253535656517 0.19341009779173302 0.40825353565657285 0.19341009779179197
 0.4082535356564715 0.19341009779165869 0.4082535356565171 0.19341009779173307 -0.008298563074635385 -0.683048916799427 0.19179149176150587 0.2962287212163575
 0.40825353565651107 0.19341009779172103 0.4082535356565726 0.19341009779179186 0.19179149176150576 0.29622872121635735 -0.008298563074472283 -0.6830489167993382
121000000.0 -0.031014939241716496 -0.6775044782996952 0.21327114226853416 0.2916988579740906 0.40887189848649985 0.19290281016293045 0.4088718984865397 0.19290281016299304
 0.21327114226853405 0.2916988579740905 -0.031014939241513568 -0.6775044782995981 0.4088718984865454 0.1929028101630048 0.40887189848660144 0.19290281016306382
 0.4088718984864996 0.19290281016293032 0.4088718984865455 0.19290281016300478 -0.010901762626054332 -0.6821320940183264 0.19315796565286789 0.29632647369271464
 0.4088718984865393 0.1929028101629929 0.4088718984866011 0.19290281016306365 0.19315796565286786 0.29632647369271453 -0.010901762625890972 -0.6821320940182374
121500000.0 -0.033563383411442015 -0.6765068599405545 0.21459441009822133 0.2917128928881774 0.4094844866565184 0.19239698352631773 0.4094844866565587 0.19239698352638046
 0.21459441009822133 0.2917128928881773 -0.03356338341123841 -0.6765068599404578 0.40948448665656445 0.19239698352639223 0.4094844866566207 0.19239698352645113
 0.40948448665651843 0.19239698352631773 0.4094844866565646 0.1923969835263922 -0.013487672833204485 -0.6812107828051281 0.19451869951997988 0.2964168157527438
 0.40948448665655834 0.19239698352638027 0.4094844866566204 0.1923969835264511 0.19451869951997974 0.2964168157527436 -0.013487672833040648 -0.6812107828050394
122000000.0 -0.03609423535743344 -0.6755055647452723 0.21591150477049714 0.29172030395036136 0.410091365293376 0.19189263039758575 0.4100913652934163 0.19189263039764845
 0.21591150477049703 0.2917203039503613 -0.03609423535722972 -0.675505564745176 0.4100913652934224 0.1918926303976601 0.4100913652934787 0.19189263039771903
 0.4100913652933758 0.19189263039758572 0.41009136529342244 0.19189263039766014 -0.016056408886566263 -0.680285109144798 0.19587367829962585 0.2964998483498798
 0.41009136529341617 0.1918926303976483 0.4100913652934786 0.19189263039771898 0.1958736782996258 0.2964998483498797 -0.016056408886402276 -0.6802851091447094
122500000.0 -0.03860762030687865 -0.6745007145482708 0.21722242284916918 0.2917211891132322 0.41069259872876224 0.19138976271765054 0.41069259872880276 0.1913897627177131
 0.21722242284916907 0.2917211891132321 -0.038607620306674466 -0.6745007145481745 0.41069259872880903 0.19138976271772504 0.4106925987288656 0.1913897627177838
 0.41069259872876196 0.19138976271765046 0.41069259872880903 0.19138976271772504 -0.018608085588557706 -0.6793551969224076 0.19722288813084415 0.2965756714873618
 0.4106925987288026 0.19138976271771313 0.4106925987288653 0.19138976271778388 0.19722288813084413 0.2965756714873619 -0.018608085588393473 -0.6793551969223192
123000000.0 -0.04110366293937398 -0.6734924290216358 0.21852716192310365 0.2917156452851784 0.41128825050804224 0.19088839186836082 0.4112882505080831 0.1908883918684234
 0.21852716192310367 0.2917156452851784 -0.04110366293916964 -0.6734924290215398 0.41128825050808915 0.19088839186843531 0.41128825050814616 0.19088839186849416
 0.411288250508042 0.19088839186836074 0.41128825050808937 0.19088839186843526 -0.021142817342209033 -0.6784211679537855 0.1985663163259348 0.296644384217321
 0.411288250508083 0.19088839186842332 0.4112882505081459 0.19088839186849402 0.1985663163259347 0.2966443842173209 -0.021142817342044505 -0.6784211679536973
123500000.0 -0.04358248737702857 -0.6724808257086723 0.21982572057872357 0.291703768333176 0.41187838339905913 0.19038852868788111 0.41187838339910027 0.19038852868794381
 0.2198257205787236 0.29170376833317596 -0.043582487376823596 -0.6724808257085766 0.41187838339910654 0.19038852868795572 0.41187838339916377 0.19038852868801445
 0.41187838339905886 0.19038852868788095 0.4118783833991066 0.19038852868795564 -0.02366071814028303 -0.6774831420157877 0.199903951341974 0.2967060846402842
 0.4118783833991 0.19038852868794368 0.4118783833991635 0.19038852868801442 0.19990395134197392 0.2967060846402842 -0.02366071814011813 -0.6774831420156997
124000000.0 -0.0460442171750325 -0.6714660200570113 0.22111809837303947 0.2916856530859037 0.4124630594009029 0.1898901834856877 0.41246305940094435 0.18989018348575037
 0.2211180983730394 0.2916856530859037 -0.04604421717482753 -0.6714660200569158 0.4124630594009507 0.18989018348576236 0.41246305940100797 0.18989018348582104
 0.4124630594009028 0.18989018348568779 0.4124630594009508 0.18989018348576234 -0.02616190155482872 -0.6765412368761915 0.20123578275283174 0.2967608699050769
 0.41246305940094424 0.18989018348575035 0.4124630594010078 0.18989018348582093 0.2012357827528316 0.2967608699050767 -0.026161901554663743 -0.6765412368761038
124500000.0 -0.04848897531267491 -0.670448125451272 0.2224042958072058 0.29166139333717106 0.4130423397526405 0.18939336605718546 0.41304233975268223 0.1893933660572484
 0.22240429580720578 0.2916613933371709 -0.04848897531246935 -0.670448125451177 0.4130423397526886 0.18939336605726004 0.41304233975274635 0.1893933660573188
 0.41304233975264026 0.1893933660571854 0.41304233975268867 0.18939336605726004 -0.02864648072715732 -0.6755955683232143 0.20256180122168388 0.29680883620910586
 0.413042339752682 0.18939336605724816 0.41304233975274607 0.18939336605731885 0.20256180122168388 0.2968088362091058 -0.028646480726991618 -0.6755955683231267
125000000.0 -0.05091688418480185 -0.669427253245284 0.22368431430059937 0.2916310818496436 0.4136162849420068 0.18889808569795596 0.4136162849420489 0.18889808569801883
 0.2236843143005994 0.29163108184964354 -0.05091688418459608 -0.669427253245189 0.4136162849420553 0.18889808569803065 0.4136162849421132 0.1888980856980893
 0.4136162849420066 0.18889808569795585 0.41361628494205527 0.18889808569803063 -0.03111456835822666 -0.6746462501946616 0.20388199847402005 0.29685007879901393
 0.4136162849420487 0.18889808569801864 0.41361628494211305 0.18889808569808922 0.20388199847401994 0.2968500787990138 -0.031114568358060812 -0.6746462501945742
125500000.0 -0.05332806559369787 -0.6684035127938689 0.2249581561654081 0.29159481035885265 0.41418495471405015 0.18840435121764473 0.4141849547140924 0.1884043512177076
 0.22495815616540812 0.2915948103588526 -0.0533280655934919 -0.6684035127937743 0.4141849547140989 0.1884043512177193 0.414184954714157 0.18840435121777804
 0.4141849547140499 0.18840435121764465 0.41418495471409883 0.18840435121771934 -0.03356627669942956 -0.6736933944067053 0.20519636727113552 0.2968846919716817
 0.41418495471409217 0.18840435121770746 0.41418495471415673 0.18840435121777796 0.2051963672711354 0.29688469197168155 -0.03356627669926334 -0.6736933944066179
126000000.0 -0.05572264074138349 -0.6673770114841927 0.22622582458172869 0.2915526695774738 0.41474840807973246 0.18791217095349713 0.4147484080797751 0.18791217095356
 0.22622582458172857 0.29155266957747367 -0.055722640741177144 -0.6673770114840981 0.4147484080797814 0.18791217095357177 0.41474840807983987 0.18791217095363044
 0.41474840807973223 0.1879121709534971 0.4147484080797816 0.1879121709535718 -0.036001717543768116 -0.6727371109822967 0.20650490138410904 0.29691276907557057
 0.41474840807977476 0.18791217095355975 0.4147484080798396 0.18791217095363028 0.20650490138410893 0.2969127690755704 -0.03600171754360186 -0.6727371109822098
126500000.0 -0.0581007302223128 -0.6663478547666857 0.22748732357316262 0.2915047491998616 0.4153067033244798 0.1874215527835507 0.41530670332452246 0.18742155278361367
 0.22748732357316254 0.2915047491998616 -0.05810073022210639 -0.6663478547665913 0.415306703324529 0.18742155278362546 0.4153067033245877 0.187421552783684
 0.4153067033244795 0.1874215527835507 0.41530670332452896 0.18742155278362532 -0.0384210022174103 -0.6717775080792185 0.20780759556825587 0.29693440251238706
 0.41530670332452235 0.18742155278361353 0.4153067033245874 0.1874215527836839 0.20780759556825582 0.29693440251238695 -0.038421002217243636 -0.6717775080791314
127000000.0 -0.06046245401646219 -0.6653161461855388 0.22874265798290755 0.29145113790683097 0.4158598980166817 0.1869325041394935 0.4158598980167248 0.1869325041395565
 0.22874265798290735 0.2914511379068309 -0.06046245401625544 -0.665316146185445 0.4158598980167314 0.18693250413956822 0.41585989801679013 0.18693250413962684
 0.4158598980166814 0.18693250413949344 0.41585989801673146 0.18693250413956816 -0.0408242415716132 -0.6708146920177728 0.20910444553805393 0.29694968373905745
 0.4158598980167245 0.18693250413955634 0.41585989801679 0.18693250413962664 0.20910444553805382 0.29694968373905734 -0.04082424157144616 -0.6708146920176858
127500000.0 -0.06280793148279742 -0.6642819874087768 0.2299918334503316 0.2913919233706666 0.4164080490161368 0.1864450320191955 0.4164080490161803 0.18644503201925847
 0.22999183345033153 0.29139192337066655 -0.06280793148259041 -0.6642819874086828 0.4164080490161867 0.18644503201927023 0.41640804901624595 0.18644503201932874
 0.41640804901613665 0.18644503201919552 0.41640804901618694 0.18644503201927023 -0.043211545975007266 -0.6698487673081166 0.21039544794253695 0.2969587032699994
 0.41640804901618006 0.18644503201925827 0.41640804901624573 0.1864450320193286 0.21039544794253687 0.29695870326999924 -0.0432115459748401 -0.6698487673080301
128000000.0 -0.06513728135310937 -0.6632454782579139 0.23123485638803165 0.2913271922603546 0.41695121248244243 0.1859591429989212 0.4169512124824862 0.18595914299898428
 0.23123485638803143 0.29132719226035436 -0.06513728135290224 -0.6632454782578207 0.4169512124824927 0.1859591429989959 0.4169512124825522 0.18595914299905447
 0.4169512124824421 0.18595914299892113 0.41695121248249284 0.18595914299899588 -0.04558302530623071 -0.6688798366772422 0.21168060034114822 0.2969615506796754
 0.41695121248248584 0.18595914299898406 0.41695121248255207 0.18595914299905433 0.2116806003411482 0.29696155067967517 -0.045583025306062994 -0.6688798366771558
128500000.0 -0.06745062172620624 -0.6622067167371993 0.2324717339593601 0.29125703024702015 0.41748944388332615 0.18547484324523222 0.41748944388337006 0.1854748432452951
 0.23247173395936008 0.29125703024702015 -0.06745062172599865 -0.6622067167371061 0.41748944388337683 0.18547484324530691 0.41748944388343645 0.1854748432453652
 0.417489443883326 0.18547484324523222 0.41748944388337694 0.1854748432453069 -0.04793878894690187 -0.6679080010956043 0.2129599011800516 0.29695831460541816
 0.41748944388336995 0.18547484324529498 0.4174894438834361 0.18547484324536512 0.21295990118005145 0.2969583146054181 -0.0479387889467343 -0.6679080010955184
129000000.0 -0.0697480700624527 -0.6611657990624482 0.23370247405642144 0.29118152200956426 0.4180227980029186 0.18499213852658522 0.4180227980029628 0.18499213852664823
 0.23370247405642133 0.29118152200956426 -0.069748070062245 -0.6611657990623553 0.41802279800296954 0.18499213852666005 0.4180227980030294 0.18499213852671842
 0.41802279800291836 0.18499213852658525 0.41802279800296954 0.18499213852665994 -0.05027894577492798 -0.6669333598034061 0.21423334976889197 0.29694908275051474
 0.4180227980029626 0.1849921385266482 0.4180227980030292 0.1849921385267183 0.21423334976889197 0.2969490827505146 -0.050278945774759866 -0.6669333598033201
129500000.0 -0.07202974317864676 -0.6601228196894713 0.23492708527852402 0.29110075124048485 0.418551328949964 0.18451103422463777 0.41855132895000846 0.18451103422470072
 0.23492708527852393 0.2911007512404847 -0.07202974317843862 -0.6601228196893785 0.41855132895001523 0.18451103422471257 0.41855132895007535 0.18451103422477083
 0.41855132894996355 0.18451103422463772 0.4185513289500152 0.18451103422471254 -0.05260360415812852 -0.6659560103365312 0.21550094625800106 0.2969339418875373
 0.41855132895000813 0.18451103422470055 0.418551328950075 0.18451103422477072 0.215500946258001 0.2969339418875372 -0.05260360415796028 -0.6659560103364455
130000000.0 -0.07429575724322078 -0.6590778713421026 0.2361455769110878 0.2910148006518728 0.4190750901659688 0.18403153534526012 0.41907509016601346 0.18403153534532327
 0.23614557691108773 0.2910148006518728 -0.07429575724301264 -0.65907787134201 0.4190750901660203 0.18403153534533487 0.4190750901660806 0.18403153534539327
 0.4190750901659685 0.18403153534526012 0.41907509016602035 0.18403153534533484 -0.05491287194818017 -0.6649760485521454 0.21676269161604245 0.2969129778619084
 0.4190750901660133 0.18403153534532313 0.41907509016608036 0.18403153534539313 0.2167626916160424 0.2969129778619083 -0.05491287194801142 -0.6649760485520597
130500000.0 -0.07654622777176172 -0.658031045039828 0.23735795890499437 0.29092375198157705 0.41959413443328525 0.18355364652927184 0.4195941344333304 0.18355364652933487
 0.23735795890499434 0.29092375198157683 -0.07654622777155279 -0.6580310450397359 0.41959413443333726 0.1835536465293466 0.4195941344333979 0.1835536465294048
 0.41959413443328514 0.1835536465292719 0.41959413443333754 0.18355364652934672 -0.057206856474861484 -0.6639935686539514 0.21801858760808984 0.2968862755956932
 0.4195941344333301 0.18355364652933465 0.4195941344333977 0.18355364652940476 0.2180185876080896 0.2968862755956929 -0.0572068564746928 -0.663993568653866
131000000.0 -0.0787812696228367 -0.6569824301250252 0.23856424185637728 0.2908276859995208 0.42010851388313114 0.18307737206289942 0.42010851388317627 0.18307737206296235
 0.23856424185637723 0.2908276859995207 -0.0787812696226277 -0.6569824301249331 0.4201085138831835 0.18307737206297414 0.4201085138832441 0.18307737206303235
 0.420108513883131 0.18307737206289934 0.4201085138831836 0.18307737206297414 -0.0594856645405972 -0.6630086632171139 0.21926863677413339 0.2968539190916022
 0.4201085138831761 0.18307737206296232 0.42010851388324394 0.18307737206303235 0.21926863677413327 0.29685391909160214 -0.059485664540428335 -0.6630086632170284
131500000.0 -0.08100099699411878 -0.6559321142898099 0.2397644369868428 0.2907266825141681 0.420618280003539 0.18260271588796897 0.4206182800035846 0.182602715888032
 0.23976443698684277 0.29072668251416817 -0.08100099699390945 -0.655932114289718 0.4206182800035918 0.18260271588804391 0.4206182800036527 0.182602715888102
 0.42061828000353885 0.18260271588796909 0.4206182800035916 0.18260271588804394 -0.06174940241528843 -0.6620214232128495 0.22051284240800778 0.2968159914372008
 0.4206182800035843 0.18260271588803198 0.4206182800036524 0.18260271588810195 0.22051284240800778 0.2968159914372006 -0.061749402415119115 -0.6620214232127646
132000000.0 -0.08320552341880073 -0.6548801836025022 0.2409585561241167 0.29062082037912557 0.4211234836472426 0.18212968161183743 0.42112348364728847 0.1821296816119005
 0.24095855612411665 0.29062082037912546 -0.0832055234185913 -0.6548801836024106 0.4211234836472956 0.18212968161191212 0.42112348364735686 0.18212968161197024
 0.4211234836472425 0.18212968161183746 0.4211234836472957 0.18212968161191218 -0.06399817583142589 -0.6610319380326924 0.22175120853673747 0.2967725748093088
 0.42112348364728824 0.18212968161190038 0.42112348364735663 0.1821296816119703 0.22175120853673744 0.29677257480930874 -0.06399817583125621 -0.6610319380326076
132500000.0 -0.08539496176228763 -0.6538267225337093 0.24214661168310755 0.2905101774998732 0.4216241750394905 0.18165827251706812 0.4216241750395366 0.18165827251713113
 0.24214661168310753 0.29051017749987307 -0.0853949617620779 -0.6538267225336181 0.4216241750395439 0.18165827251714275 0.4216241750396053 0.18165827251720087
 0.4216241750394903 0.18165827251706804 0.42162417503954386 0.18165827251714278 -0.06623208997947536 -0.6600402955124295 0.2229837399002904 0.29672375047858596
 0.4216241750395364 0.181658272517131 0.42162417503960514 0.18165827251720085 0.22298373990029033 0.29672375047858585 -0.06623208997930533 -0.6600402955123447
133000000.0 -0.08756942421916479 -0.6527718139820339 0.24332861664738195 0.2903948308406157 0.4221204037857916 0.1811884915708602 0.42212040378583787 0.18118849157092315
 0.24332861664738184 0.29039483084061557 -0.08756942421895483 -0.6527718139819427 0.4221204037858452 0.181188491570935 0.4221204037859067 0.18118849157099287
 0.42212040378579124 0.18118849157086014 0.42212040378584526 0.18118849157093492 -0.06845124950352627 -0.6590465819557167 0.2242104419317387 0.29666959881429117
 0.42212040378583765 0.181188491570923 0.42212040378590643 0.1811884915709929 0.2242104419317386 0.2966695988142911 -0.0684512495033563 -0.6590465819556321
133500000.0 -0.08972902231042529 -0.6517155392994101 0.24450458455104482 0.2902748564312457 0.4226122188795901 0.18072034143423438 0.4226122188796366 0.1807203414342974
 0.24450458455104476 0.2902748564312455 -0.08972902231021525 -0.6517155392993192 0.42261221887964373 0.1807203414343091 0.4226122188797058 0.18072034143436702
 0.4226122188795898 0.18072034143423435 0.42261221887964395 0.18072034143430907 -0.07065575849720217 -0.6580508821573775 0.2254313207378168 0.29661019928920573
 0.4226122188796364 0.18072034143429722 0.42261221887970546 0.18072034143436694 0.22543132073781674 0.2966101992892057 -0.07065575849703175 -0.6580508821572932
134000000.0 -0.09187386688095572 -0.6506579783160716 0.24567452946101637 0.29015032937441065 0.4230996687098689 0.18025382447098334 0.42309966870991594 0.1802538244710465
 0.24567452946101645 0.29015032937441065 -0.09187386688074504 -0.6506579783159808 0.4230996687099232 0.18025382447105812 0.4230996687099855 0.1802538244711161
 0.42309966870986876 0.18025382447098337 0.42309966870992327 0.18025382447105814 -0.07284572049981727 -0.6570532794263825 0.22664638307987328 0.29654563048471444
 0.42309966870991567 0.1802538244710462 0.4230996687099851 0.180253824471116 0.22664638307987311 0.2965456304847143 -0.07284572049964648 -0.6570532794262983
134500000.0 -0.09400406809726607 -0.6495992093651554 0.24683846595970033 0.29002132385267765 0.42358280106868207 0.17978894275639282 0.4235828010687291 0.17978894275645582
 0.24683846595970013 0.2900213238526775 -0.0940040680970554 -0.649599209365065 0.4235828010687365 0.17978894275646753 0.4235828010687988 0.17978894275652527
 0.4235828010686818 0.1797889427563927 0.4235828010687367 0.1797889427564674 -0.07502123849277934 -0.6560538556085186 0.22785563635520878 0.29647597009603327
 0.4235828010687289 0.17978894275645574 0.4235828010687985 0.17978894275652535 0.22785563635520867 0.29647597009603327 -0.07502123849260837 -0.6560538556084342
135000000.0 -0.09611973544546294 -0.6485393093069484 0.24799640912803664 0.2898879131357857 0.424061663158612 0.17932569808573634 0.4240616631586594 0.1793256980857994
 0.2479964091280366 0.2898879131357856 -0.09611973544525215 -0.6485393093068584 0.4240616631586668 0.17932569808581095 0.42406166315872934 0.1793256980858688
 0.4240616631586117 0.17932569808573637 0.4240616631586669 0.179325698085811 -0.07718241489622865 -0.6550526911087479 0.22905908857879737 0.29640129493757783
 0.4240616631586593 0.17932569808579923 0.4240616631587291 0.1793256980858688 0.22905908857879723 0.29640129493757766 -0.07718241489605747 -0.655052691108664
135500000.0 -0.09822097772945199 -0.6474783535527765 0.2491483745289331 0.28975016958798205 0.424536301600158 0.17886409198255315 0.42453630160020567 0.17886409198261607
 0.24914837452893293 0.2897501695879819 -0.09822097772924088 -0.6474783535526863 0.424536301600213 0.1788640919826279 0.42453630160027583 0.17886409198268566
 0.4245363016001579 0.1788640919825532 0.42453630160021316 0.17886409198262793 -0.07932935156590537 -0.6540498649132637 0.23025674836538165 0.29632168094846206
 0.4245363016002054 0.17886409198261607 0.4245363016002756 0.17886409198268563 0.23025674836538151 0.2963216809484619 -0.07932935156573416 -0.65404986491318
136000000.0 -0.10030790306936511 -0.6464164160885427 0.2502943781910662 0.28960816467543266 0.4250067624390476 0.17840412570671174 0.42500676243909546 0.1784041257067748
 0.25029437819106615 0.2896081646754326 -0.10030790306915363 -0.6464164160884528 0.42500676243910296 0.1784041257067864 0.42500676243916596 0.17840412570684416
 0.42500676243904745 0.17840412570671169 0.42500676243910296 0.17840412570678632 -0.08146214979024254 -0.6530454546112393 0.23144862491193863 0.29623720319812186
 0.42500676243909535 0.17840412570677466 0.4250067624391657 0.17840412570684408 0.23144862491193854 0.2962372031981218 -0.08146214979007078 -0.6530454546111557
136500000.0 -0.10238061890020661 -0.6453535694979198 0.25143443659304915 0.2894619689737037 0.4254730911534766 0.17794580026226595 0.4254730911535248 0.17794580026232895
 0.2514344365930491 0.2894619689737036 -0.10238061889999507 -0.6453535694978303 0.42547309115353227 0.17794580026234053 0.42547309115359544 0.17794580026239823
 0.4254730911534763 0.17794580026226606 0.42547309115353227 0.1779458002623407 -0.08358091028767271 -0.6520395364162793 0.23263472798051021 0.2961479358920561
 0.42547309115352444 0.1779458002623288 0.42547309115359516 0.1779458002623982 0.23263472798050996 0.29614793589205596 -0.08358091028750092 -0.6520395364161962
137000000.0 -0.10443923197070902 -0.6442898849851997 0.2525685666479562 0.2893116521753029 0.425935332661274 0.17748911640510723 0.4259353326613223 0.17748911640517023
 0.2525685666479561 0.28931165217530286 -0.10443923197049709 -0.6442898849851103 0.42593533266132994 0.17748911640518192 0.4259353326613934 0.1774891164052394
 0.4259353326612737 0.17748911640510726 0.4259353326613298 0.1774891164051819 -0.08568573320414842 -0.6510321851875779 0.23381506788139053 0.296053952377674
 0.425935332661322 0.17748911640517012 0.4259353326613931 0.17748911640523943 0.23381506788139048 0.29605395237767396 -0.08568573320397636 -0.6510321851874947
137500000.0 -0.1064838483423918 -0.6432254323978024 0.25369678568820037 0.2891572830972808 0.42639353132699276 0.17703407465042045 0.4263935313270414 0.17703407465048351
 0.25369678568820037 0.28915728309728067 -0.10648384834217951 -0.6432254323977132 0.42639353132704905 0.17703407465049514 0.42639353132711266 0.17703407465055274
 0.4263935313269926 0.1770340746504205 0.42639353132704916 0.1770340746504952 -0.08777671811086436 -0.650023474450777 0.23498965545666825 0.29595532515024836
 0.42639353132704116 0.17703407465048338 0.42639353132711244 0.17703407465055268 0.23498965545666817 0.29595532515024825 -0.08777671811069196 -0.6500234744506941
138000000.0 -0.10851457338881783 -0.6421602802484528 0.254819111450757 0.2889989296888808 0.4268477309689274 0.17658067527994661 0.4268477309689762 0.1765806752800095
 0.254819111450757 0.2889989296888808 -0.10851457338860564 -0.6421602802483638 0.4268477309689839 0.17658067528002128 0.4268477309690478 0.1765806752800786
 0.4268477309689272 0.1765806752799466 0.42684773096898393 0.17658067528002114 -0.08985396400217939 -0.6490134764185418 0.23615850206411354 0.29585212585896264
 0.426847730968976 0.17658067528000934 0.42684773096904755 0.17658067528007856 0.23615850206411343 0.2958521258589626 -0.08985396400200686 -0.6490134764184591
138500000.0 -0.1105315117950419 -0.6410944957370249 0.2559355620627255 0.2888366590392358 0.4272979748660548 0.17612891834905625 0.427297974866104 0.1761289183491192
 0.2559355620627254 0.2888366590392356 -0.11053151179482963 -0.6410944957369364 0.42729797486611165 0.17612891834913086 0.4272979748661758 0.17612891834918826
 0.42729797486605464 0.17612891834905625 0.4272979748661118 0.17612891834913078 -0.0919175692937298 -0.6480022620108448 0.23732161956140826 0.29574442531304834
 0.4272979748661036 0.17612891834911903 0.4272979748661755 0.17612891834918823 0.23732161956140807 0.2957444253130482 -0.091917569293557 -0.648002262010762
139000000.0 -0.11253476755724043 -0.6400281447720618 0.2570461560272261 0.28867053738510395 0.4277443057649035 0.1756788036936416 0.4277443057649528 0.17567880369370462
 0.257046156027226 0.28867053738510384 -0.11253476755702779 -0.6400281447719735 0.42774430576496075 0.17567880369371613 0.427744305765025 0.17567880369377353
 0.42774430576490324 0.17567880369364164 0.42774430576496075 0.1756788036937161 -0.09396763182073138 -0.6469899008749688 0.23847902029071175 0.29563229348800374
 0.4277443057649526 0.17567880369370445 0.42774430576502465 0.1756788036937735 0.23847902029071166 0.29563229348800363 -0.09396763182055828 -0.6469899008748863
139500000.0 -0.1145244439825214 -0.6389612919919704 0.25815091220962266 0.2885006301186404 0.4281867658863455 0.17523033093682858 0.428186765886395 0.17523033093689155
 0.25815091220962244 0.28850063011864024 -0.11452444398230875 -0.6389612919918823 0.42818676588640275 0.17523033093690316 0.42818676588646715 0.17523033093696042
 0.42818676588634513 0.17523033093682863 0.42818676588640286 0.17523033093690313 -0.09600424883646007 -0.6459764614052295 0.23963071706355618 0.2955157995318922
 0.42818676588639465 0.17523033093689142 0.428186765886467 0.17523033093696042 0.23963071706355613 0.2955157995318921 -0.09600424883628694 -0.6459764614051472
140000000.0 -0.11650064368890653 -0.6378940007859006 0.25924984982406735 0.28832700179519893 0.4286253969323152 0.1747834994955156 0.4286253969323651 0.1747834994955785
 0.25924984982406735 0.2883270017951988 -0.11650064368869338 -0.6378940007858126 0.4286253969323729 0.1747834994955902 0.42862539693243756 0.17478349949564728
 0.428625396932315 0.17478349949551558 0.42862539693237306 0.17478349949559008 -0.09802751701091147 -0.6449620107624194 0.24077672314606718 0.2953950117717105
 0.42862539693236484 0.17478349949557834 0.42862539693243734 0.17478349949564725 0.24077672314606707 0.2953950117717104 -0.09802751701073811 -0.6449620107623374
140500000.0 -0.1184634686054782 -0.6368263333143079 0.26034298842035997 0.2881497161411569 0.4290602400924545 0.17433830858674115 0.42906024009250465 0.17433830858680402
 0.26034298842035986 0.28814971614115686 -0.11846346860526483 -0.6368263333142202 0.42906024009251253 0.17433830858681562 0.4290602400925773 0.17433830858687277
 0.42906024009245436 0.17433830858674118 0.42906024009251253 0.17433830858681562 -0.10003753242962728 -0.6439466148929801 0.2419170522445038 0.29526999771982193
 0.42906024009250443 0.17433830858680396 0.4290602400925772 0.1743383085868728 0.24191705224450374 0.2952699977198218 -0.1000375324294536 -0.6439466148928982
141000000.0 -0.12041301997268919 -0.6357583505292069 0.26143034787111663 0.2879688360617645 0.4294913360506814 0.1738947572338878 0.4294913360507317 0.17389475723395073
 0.2614303478711165 0.2879688360617645 -0.12041301997247578 -0.6357583505291194 0.4294913360507396 0.17389475723396225 0.42949133605080464 0.1738947572340195
 0.4294913360506811 0.1738947572338878 0.42949133605073964 0.17389475723396214 -0.10203439059269036 -0.6429303385479016 0.24305171849111232 0.2951408240804518
 0.4294913360507316 0.17389475723395065 0.4294913360508045 0.1738947572340194 0.2430517184911123 0.29514082408045167 -0.10203439059251611 -0.6429303385478197
141500000.0 -0.12234939834282603 -0.6346901121941183 0.2625119483592429 0.2877844236490071 0.42991872499168643 0.17345284427272326 0.4299187249917371 0.17345284427278612
 0.2625119483592427 0.28778442364900686 -0.12234939834261242 -0.634690112194031 0.429918724991745 0.17345284427279772 0.4299187249918104 0.17345284427285476
 0.42991872499168615 0.1734528442727232 0.42991872499174505 0.1734528442727976 -0.10401818641387756 -0.6419132453013555 0.24418073643028892 0.2950075567562368
 0.42991872499173667 0.17345284427278587 0.4299187249918101 0.17345284427285462 0.2441807364302888 0.29500755675623663 -0.10401818641370329 -0.641913245301274
142000000.0 -0.12427270358062259 -0.6336216769037128 0.2635878103657027 0.287596540189481 0.4303424466073545 0.17301256835728446 0.4303424466074053 0.1730125683573473
 0.2635878103657027 0.28759654018948105 -0.12427270358040855 -0.6336216769036255 0.43034244660741333 0.1730125683573589 0.4303424466074789 0.17301256835741585
 0.4303424466073543 0.17301256835728446 0.43034244660741333 0.17301256835735876 -0.1059890142199697 -0.6408953975690639 0.24530412100504434 0.2948702608548248
 0.4303424466074051 0.17301256835734716 0.4303424466074786 0.17301256835741582 0.2453041210050442 0.2948702608548247 -0.10598901421979517 -0.6408953975689825
142500000.0 -0.12618303486401838 -0.632553102103156 0.26465795465758163 0.28740524617227825 0.43076254010311266 0.17257392796560844 0.4307625401031637 0.1725739279656712
 0.26465795465758146 0.2874052461722781 -0.12618303486380422 -0.6325531021030691 0.4307625401031717 0.17257392796568274 0.43076254010323756 0.17257392796573975
 0.43076254010311243 0.1725739279656084 0.4307625401031719 0.17257392796568277 -0.10794696775021093 -0.639876856626405 0.24642188754376854 0.2947290006955201
 0.4307625401031635 0.17257392796567123 0.43076254010323733 0.17257392796573978 0.24642188754376843 0.29472900069552005 -0.10794696775003611 -0.6398768566263237
143000000.0 -0.12808049068505614 -0.6314844441071605 0.2657224022764339 0.2872106012968742 0.43117904420420494 0.17213692140531375 0.43117904420425635 0.17213692140537667
 0.2657224022764339 0.2872106012968741 -0.1280804906848416 -0.631484444107074 0.43117904420426456 0.1721369214053881 0.43117904420433056 0.17213692140544506
 0.43117904420420466 0.1721369214053138 0.4311790442042645 0.17213692140538814 -0.10989214015591418 -0.638857682626263 0.24753405174728638 0.29458383981596936
 0.4311790442042561 0.1721369214053765 0.43117904420433023 0.17213692140544506 0.24753405174728632 0.29458383981596925 -0.10989214015573909 -0.638857682626182
143500000.0 -0.1299651688509142 -0.6304157581187458 0.26678117452691325 0.28701266448101653 0.43159199716189417 0.17170154681903602 0.43159199716194574 0.17170154681909885
 0.2667811745269131 0.2870126644810165 -0.12996516885069948 -0.6304157581186592 0.4315919971619539 0.17170154681911043 0.43159199716201996 0.1717015468191673
 0.4315919971618939 0.17170154681903602 0.43159199716195396 0.1717015468191103 -0.11182462400020769 -0.6378379346166205 0.2486406296762013 0.29443484097888384
 0.43159199716194546 0.17170154681909866 0.4315919971620198 0.17170154681916713 0.2486406296762013 0.2944348409788838 -0.1118246240000327 -0.6378379346165397
144000000.0 -0.1318371664850679 -0.6293470982477096 0.2678342929656759 0.28681149386861216 0.43200143675958924 0.1712678021897214 0.432001436759641 0.17126780218978419
 0.2678342929656758 0.286811493868612 -0.13183716648485297 -0.6293470982476237 0.43200143675964936 0.17126780218979576 0.4320014367597156 0.1712678021898525
 0.4320014367595891 0.17126780218972135 0.4320014367596495 0.17126780218979568 -0.11374451125791855 -0.6368176705578994 0.24974163773852143 0.2942820661787943
 0.4320014367596407 0.17126780218978394 0.43200143675971536 0.1712678021898524 0.24974163773852115 0.29428206617879427 -0.11374451125774342 -0.6368176705578186
144500000.0 -0.1336965800285773 -0.6282785175288204 0.26888177939055674 0.28660714683760596 0.43240740031890335 0.17083568534578078 0.4324074003189553 0.17083568534584354
 0.26888177939055663 0.28660714683760574 -0.1336965800283622 -0.6282785175287345 0.4324074003189637 0.17083568534585497 0.43240740031903024 0.1708356853459117
 0.432407400318903 0.17083568534578067 0.4324074003189637 0.1708356853458549 -0.11565189331558956 -0.6357969473400542 0.2508370926775636 0.29412557664883227
 0.432407400318955 0.17083568534584334 0.43240740031902997 0.17083568534591176 0.2508370926775635 0.2941255766488322 -0.11565189331541385 -0.6357969473399736
145000000.0 -0.13554350524149353 -0.6272100679397251 0.269923655830007 0.2863996800078524 0.432809924705636 0.1704051939661108 0.43280992470568813 0.17040519396617354
 0.2699236558300069 0.2863996800078522 -0.13554350524127823 -0.6272100679396395 0.43280992470569646 0.17040519396618511 0.4328099247057632 0.1704051939662417
 0.43280992470563573 0.17040519396611067 0.4328099247056966 0.17040519396618498 -0.11754686097162098 -0.6347758207994171 0.2519270115601289 0.29396543286753674
 0.4328099247056879 0.1704051939661733 0.43280992470576296 0.17040519396624157 0.25192701156012876 0.2939654328675366 -0.11754686097144529 -0.6347758207993366
145500000.0 -0.13737803720438263 -0.626141800418585 0.2709599445327943 0.2861891492489727 0.4332090463356867 0.16997632558498146 0.43320904633573903 0.16997632558504422
 0.2709599445327942 0.28618914924897254 -0.13737803720416727 -0.6261418004184995 0.43320904633574747 0.1699763255850556 0.4332090463358142 0.1699763255851122
 0.43320904633568635 0.16997632558498144 0.43320904633574747 0.16997632558505557 -0.11942950443654042 -0.6337543457353005 0.2530114117649465 0.293801694565681
 0.4332090463357388 0.16997632558504414 0.433209046335814 0.16997632558511225 0.2530114117649463 0.293801694565681 -0.11942950443636437 -0.6337543457352199
146000000.0 -0.1392002703199605 -0.6250737648814377 0.27199066795795435 0.28597560968819824 0.4336048011808951 0.1695490775967961 0.4336048011809478 0.16954907759685872
 0.27199066795795435 0.2859756096881983 -0.13920027031974463 -0.6250737648813525 0.43360480118095635 0.16954907759687032 0.43360480118102346 0.1695490775969268
 0.4336048011808949 0.1695490775967961 0.43360480118095623 0.1695490775968702 -0.1212999133333907 -0.6327325759263608 0.2540903109713791 0.29363442073311424
 0.4336048011809475 0.1695490775968587 0.43360480118102296 0.16954907759692683 0.2540903109713789 0.2936344207331141 -0.12129991333321444 -0.6327325759262805
146500000.0 -0.1410102983148345 -0.6240060102392924 0.2730158487649941 0.28575911571819435 0.4339972247748121 0.1691234472607264 0.4339972247748649 0.169123447260789
 0.27301584876499385 0.2857591157181943 -0.1410102983146186 -0.6240060102392071 0.43399722477487346 0.1691234472608006 0.4339972247749406 0.1691234472608571
 0.43399722477481173 0.1691234472607264 0.43399722477487346 0.1691234472608005 -0.12315817669823262 -0.6317105641467229 0.25516372714838664 0.29346366962561776
 0.4339972247748647 0.169123447260789 0.4339972247749404 0.169123447260857 0.2551637271483866 0.29346366962561776 -0.12315817669805619 -0.6317105641466428
147000000.0 -0.14280821424135035 -0.6229385844149575 0.2740355098043367 0.2855397210048639 0.43438635221839844 0.16869943170522547 0.4343863522184517 0.168699431705288
 0.2740355098043366 0.2855397210048638 -0.14280821424113435 -0.6229385844148728 0.4343863522184601 0.16869943170529944 0.43438635221852756 0.16869943170535578
 0.4343863522183982 0.16869943170522542 0.43438635221846017 0.1686994317052994 -0.1250043829807627 -0.6306883621818722 0.2562316785437435 0.29328949877177124
 0.43438635221845134 0.16869943170528784 0.43438635221852734 0.16869943170535573 0.2562316785437433 0.2932894987717711 -0.12500438298058622 -0.6306883621817926
147500000.0 -0.1445941104795362 -0.6218715343596116 0.27504967410800774 0.2853174784951275 0.43477221818565553 0.1682770279324215 0.4347722181857089 0.16827702793248409
 0.2750496741080076 0.2853174784951274 -0.14459411047931997 -0.621871534359527 0.4347722181857174 0.16827702793249555 0.43477221818578515 0.1682770279325519
 0.4347722181856553 0.16827702793242158 0.43477221818571754 0.16827702793249558 -0.12683862004503602 -0.6296660208443143 0.2572941836735021 0.29311196497982317
 0.43477221818570877 0.1682770279324839 0.4347722181857849 0.16827702793255178 0.25729418367350204 0.29311196497982306 -0.12683862004485946 -0.6296660208442351
148000000.0 -0.14636807873914356 -0.6208049060691114 0.27605836488055463 0.28509244042467785 0.4351548569291855 0.16785623282239703 0.43515485692923916 0.16785623282245957
 0.27605836488055446 0.28509244042467774 -0.14636807873892707 -0.6208049060690267 0.43515485692924766 0.16785623282247114 0.4351548569293155 0.16785623282252732
 0.43515485692918526 0.16785623282239712 0.43515485692924777 0.16785623282247109 -0.1286609751702974 -0.6286435899890073 0.2583512613117029 0.29293112434456675
 0.43515485692923883 0.16785623282245943 0.4351548569293153 0.1678562328225273 0.2583512613117027 0.2929311243445665 -0.12866097517012046 -0.628643589988928
148500000.0 -0.14813021006177923 -0.6197387446000506 0.2770616054901953 0.28486465832570584 0.43553430228568274 0.16743704313735386 0.4355343022857366 0.16743704313741628
 0.27706160549019515 0.2848646583257057 -0.1481302100615626 -0.6197387445999664 0.4355343022857452 0.16743704313742777 0.43553430228581325 0.16743704313748387
 0.43553430228568246 0.1674370431373538 0.4355343022857453 0.16743704313742777 -0.13047153505190992 -0.6276211185285668 0.2594029304803204 0.29274703225421483
 0.4355343022857362 0.1674370431374161 0.435534302285813 0.16743704313748384 0.25940293048032026 0.2927470322542146 -0.130471535051733 -0.6276211185284877
149000000.0 -0.1498805948231262 -0.6186730940855663 0.27805941946019297 0.2846341830345958 0.4359105876813572 0.16701945552566771 0.43591058768141117 0.16701945552573025
 0.27805941946019286 0.2846341830345957 -0.1498805948229095 -0.6186730940854823 0.43591058768141994 0.16701945552574163 0.43591058768148805 0.16701945552579778
 0.4359105876813569 0.16701945552566774 0.4359105876814199 0.16701945552574157 -0.1322703858023855 -0.6265986544482507 0.2604492104394464 0.2925597433972728
 0.43591058768141094 0.16701945552573016 0.4359105876814877 0.16701945552579775 0.2604492104394463 0.2925597433972727 -0.13227038580220815 -0.6265986544481715
149500000.0 -0.15161932273524797 -0.6176079977508979 0.2790518304604497 0.28440106469958915 0.4362837461372893 0.16660346652583768 0.4362837461373436 0.1666034665259002
 0.2790518304604496 0.28440106469958903 -0.15161932273503098 -0.617607997750814 0.4362837461373523 0.16660346652591151 0.43628374613742077 0.1666034665259676
 0.4362837461372891 0.16660346652583768 0.43628374613735244 0.16660346652591154 -0.13405761295250507 -0.6255762448207222 0.26149012067770083 0.29236931176940617
 0.43628374613734333 0.16660346652590005 0.4362837461374205 0.16660346652596764 0.26149012067770067 0.2923693117694059 -0.13405761295232754 -0.6255762448206431
150000000.0 -0.15334648284897448 -0.6165434979287031 0.28003886229931635 0.28416535278841376 0.43665381027471895 0.16618907257032894 0.4366538102747734 0.16618907257039137
 0.28003886229931624 0.28416535278841365 -0.15334648284875693 -0.6165434979286195 0.4366538102747823 0.16618907257040288 0.4366538102748508 0.16618907257045887
 0.4366538102747188 0.16618907257032894 0.43665381027478234 0.16618907257040286 -0.13583330145253378 -0.6245539358205967 0.26252568090287015 0.2921757906803002
 0.43665381027477324 0.16618907257039112 0.4366538102748507 0.16618907257045873 0.2625256809028701 0.29217579068030003 -0.1358333014523562 -0.6245539358205183
150500000.0 -0.1550621635563649 -0.6154796360741345 0.28102053891561335 0.28392709609587574 0.43702081232026546 0.16577626998931452 0.4370208123203202 0.16577626998937706
 0.2810205389156131 0.2839270960958756 -0.15506216355614746 -0.6154796360740509 0.43702081232032886 0.16577626998938835 0.43702081232039774 0.16577626998944434
 0.4370208123202652 0.16577626998931463 0.437020812320329 0.16577626998938838 -0.13759753567352304 -0.6235317727387746 0.2635559110327657 0.2919792327605089
 0.4370208123203199 0.16577626998937686 0.4370208123203975 0.16577626998944425 0.2635559110327656 0.29197923276050863 -0.13759753567334504 -0.6235317727386961
151000000.0 -0.1567664525932468 -0.6144164527796777 0.2819968843708581 0.2836863427514146 0.4373847841110837 0.1653650550143178 0.4373847841111386 0.16536505501438006
 0.28199688437085807 0.2836863427514146 -0.15676645259302915 -0.6144164527795942 0.4373847841111475 0.16536505501439164 0.43738478411121645 0.16536505501444743
 0.4373847841110835 0.1653650550143178 0.43738478411114745 0.16536505501439153 -0.13935039940869454 -0.6225097999965619 0.2645808311863 0.29177968996829173
 0.4373847841111384 0.16536505501438006 0.43738478411121623 0.16536505501444748 0.26458083118629994 0.29177968996829173 -0.13935039940851648 -0.6225097999964835
151500000.0 -0.15845943704182436 -0.6133539877897579 0.28296792284169553 0.2834431402266176 0.43774575709995345 0.16495542378175732 0.43774575710000874 0.16495542378181977
 0.2829679228416955 0.2834431402266175 -0.15845943704160667 -0.6133539877896749 0.43774575710001745 0.16495542378183112 0.4377457571000866 0.1649554237818868
 0.43774575709995317 0.16495542378175737 0.43774575710001756 0.164955423781831 -0.14109197587491026 -0.6214880611595828 0.2656004616747757 0.29157721359643524
 0.4377457571000084 0.1649554237818196 0.43774575710008634 0.16495542378188685 0.2656004616747756 0.2915772135964352 -0.14109197587473193 -0.6214880611595046
152000000.0 -0.1601412033333553 -0.6122922800151162 0.2839336786125253 0.2831975353426944 0.43810376236030374 0.1645473723363993 0.43810376236035914 0.16454737233646152
 0.2839336786125253 0.28319753534269426 -0.1601412033331373 -0.6122922800150334 0.4381037623603681 0.16454737233647285 0.43810376236043747 0.16454737233652866
 0.43810376236030363 0.16454737233639924 0.4381037623603682 0.16454737233647293 -0.14282234771421762 -0.6204665989514861 0.26661482299338196 0.29137185427905726
 0.4381037623603589 0.16454737233646144 0.4381037623604372 0.1645473723365287 0.26661482299338174 0.29137185427905715 -0.14282234771403898 -0.6204665989514081
152500000.0 -0.16181183725089338 -0.6112313675469566 0.284894176068324 0.2829495742779058 0.4384588305911732 0.16414089663471462 0.43845883059122887 0.16414089663477688
 0.2848941760683239 0.2829495742779057 -0.16181183725067516 -0.6112313675468739 0.43845883059123786 0.16414089663478829 0.4384588305913073 0.164140896634844
 0.438458830591173 0.1641408966347146 0.43845883059123797 0.1641408966347883 -0.14454159699547267 -0.6194454552674488 0.26762393581289734 0.2911636619983908
 0.43845883059122864 0.16414089663477677 0.43845883059130714 0.164140896634844 0.2676239358128972 0.29116366199839067 -0.1445415969952939 -0.6194454552673707
153000000.0 -0.16347142393209305 -0.6101712876708731 0.28584943968765647 0.28269930257495224 0.43881099212210645 0.16373599254815074 0.43881099212216235 0.163735992548213
 0.28584943968765636 0.2826993025749521 -0.16347142393187464 -0.6101712876707908 0.4388109921221713 0.16373599254822435 0.43881099212224106 0.16373599254827997
 0.4388109921221062 0.16373599254815074 0.4388109921221715 0.16373599254822432 -0.14624980521603423 -0.6184246711874773 0.2686278209715919 0.2909526860915493
 0.4388109921221621 0.16373599254821292 0.43881099212224084 0.16373599254827997 0.26862782097159177 0.29095268609154923 -0.1462498052158553 -0.6184246711873995
153500000.0 -0.16512004787207238 -0.6091120768805544 0.2867994940358736 0.28244676514831335 0.43916027691798737 0.16333265586631168 0.4391602769180433 0.16333265586637397
 0.28679949403587357 0.28244676514831324 -0.16512004787185375 -0.6091120768804721 0.43916027691805243 0.16333265586638523 0.4391602769181222 0.16333265586644077
 0.43916027691798715 0.1633326558663117 0.4391602769180525 0.16333265586638523 -0.14794705330353072 -0.6174042869895139 0.2696264994673262 0.2907389752572656
 0.43916027691804316 0.16333265586637377 0.43916027691812193 0.16333265586644083 0.2696264994673261 0.29073897525726555 -0.14794705330335176 -0.6174042869894363
154000000.0 -0.1667577929263347 -0.6080537708912709 0.28774436375849133 0.28219200629154273 0.4395067145838093 0.16293088230005642 0.4395067145838656 0.16293088230011862
 0.28774436375849133 0.28219200629154256 -0.1667577929261158 -0.6080537708911891 0.43950671458387464 0.16293088230012986 0.43950671458394475 0.16293088230018535
 0.43950671458380913 0.16293088230005645 0.4395067145838748 0.1629308823001299 -0.1496334216176921 -0.616384342162344 0.2706199924498429 0.29052257756260863
 0.43950671458386537 0.16293088230011835 0.4395067145839445 0.1629308823001854 0.2706199924498428 0.29052257756260846 -0.149633421617513 -0.6163843421622666
154500000.0 -0.16838474231374115 -0.6069964046531499 0.28868407357474657 0.281935069684513 0.4398503343693848 0.1625306674845115 0.4398503343694412 0.16253066748457365
 0.28868407357474646 0.28193506968451293 -0.16838474231352216 -0.6069964046530678 0.4398503343694504 0.162530667484585 0.4398503343695205 0.16253066748464043
 0.4398503343693846 0.1625306674845115 0.4398503343694505 0.1625306674845849 -0.15130898995224792 -0.6153648754183147 0.27160832121324746 0.2903035404496705
 0.43985033436944093 0.1625306674845735 0.4398503343695203 0.16253066748464032 0.27160832121324735 0.2903035404496704 -0.15130898995206857 -0.6153648754182373
155000000.0 -0.170000978619538 -0.6059400123642369 0.2896186482713291 0.28167599840061436 0.4401911651739917 0.16213200698200558 0.4401911651740484 0.16213200698206778
 0.28961864827132905 0.2816759984006143 -0.17000097861931907 -0.6059400123641551 0.4401911651740575 0.16213200698207902 0.440191165174128 0.16213200698213434
 0.4401911651739914 0.16213200698200553 0.44019116517405754 0.1621320069820788 -0.15297383753688806 -0.6143459247058586 0.27259150718867303 0.29008191074222883
 0.4401911651740482 0.1621320069820675 0.4401911651741277 0.16213200698213423 0.27259150718867303 0.2900819107422287 -0.15297383753670826 -0.6143459247057815
155500000.0 -0.17160658379842986 -0.6048846274833523 0.2905481126962819 0.2814148349138994 0.4405292355509609 0.1617348962849218 0.4405292355510177 0.16173489628498364
 0.2905481126962818 0.28141483491389935 -0.17160658379821045 -0.6048846274832708 0.44052923555102713 0.16173489628499527 0.4405292355510975 0.16173489628505022
 0.44052923555096063 0.16173489628492171 0.4405292355510271 0.1617348962849951 -0.15462804303928201 -0.6133275272218353 0.2735695719371282 0.28985773465237524
 0.4405292355510176 0.16173489628498355 0.4405292355510974 0.1617348962850502 0.27356957193712816 0.28985773465237513 -0.15462804303910244 -0.6133275272217585
156000000.0 -0.17320163917770012 -0.6038302827427404 0.2914724917530684 0.28115162110618014 0.44086457371220245 0.16133933081847626 0.44086457371225957 0.16133933081853827
 0.2914724917530684 0.2811516211061801 -0.17320163917748052 -0.603830282742659 0.4408645737122689 0.16133933081854965 0.44086457371233956 0.16133933081860471
 0.44086457371220217 0.1613393308184762 0.4408645737122689 0.1613393308185495 -0.1562716845671583 -0.6123097194236832 0.27454253714252064 0.28963105778711573
 0.44086457371225934 0.16133933081853818 0.4408645737123392 0.1613393308186048 0.2745425371425206 0.2896310577871156 -0.15627168456697818 -0.6123097194236062
156500000.0 -0.17478622546037673 -0.6027770101605181 0.29239181039480344 0.2808863982740713 0.441197207532673 0.16094530594342044 0.4411972075327303 0.16094530594348247
 0.2923918103948034 0.28088639827407136 -0.17478622546015704 -0.6027770101604367 0.44119720753273967 0.16094530594349382 0.4411972075328105 0.16094530594354897
 0.4411972075326729 0.16094530594342044 0.4411972075327396 0.16094530594349363 -0.15790483967043467 -0.6112925370413906 0.27551042460485553 0.2894019251549367
 0.44119720753273006 0.16094530594348233 0.44119720753281017 0.16094530594354883 0.2755104246048554 0.2894019251549366 -0.15790483967025443 -0.6112925370413139
157000000.0 -0.1763604227284375 -0.6017248410529241 0.2933060936186418 0.28061920713598093 0.44152716455478375 0.16055281695866994 0.44152716455484137 0.1605528169587319
 0.2933060936186418 0.28061920713598076 -0.17636042272821736 -0.6017248410528433 0.44152716455485075 0.1605528169587431 0.44152716455492186 0.16055281695879822
 0.4415271645547836 0.16055281695866985 0.4415271645548508 0.16055281695874313 -0.1595275853434063 -0.6102760150892877 0.2764732562336048 0.2891703811723373
 0.4415271645548412 0.16055281695873164 0.4415271645549217 0.16055281695879806 0.27647325623360475 0.2891703811723372 -0.1595275853432258 -0.6102760150892114
157500000.0 -0.17792431044605583 -0.6006738060463738 0.2942153664603242 0.28035008783904686 0.4418544719927518 0.16016185910386235 0.4418544719928096 0.16016185910392433
 0.2942153664603242 0.28035008783904675 -0.17792431044583587 -0.6006738060462931 0.4418544719928189 0.16016185910393554 0.44185447199289013 0.1601618591039905
 0.44185447199275163 0.16016185910386244 0.4418544719928189 0.16016185910393552 -0.16113999802698087 -0.6092601878776591 0.2774310540412431 0.2889364696703252
 0.4418544719928093 0.16016185910392425 0.4418544719928898 0.1601618591039906 0.2774310540412428 0.2889364696703251 -0.16113999802680015 -0.6092601878775827
158000000.0 -0.1794779674628849 -0.5996239350893171 0.2951196539888739 0.28007907996602127 0.4421791567368912 0.15977242756184803 0.442179156736949 0.15977242756190985
 0.29511965398887385 0.28007907996602116 -0.17947796746266492 -0.5996239350892367 0.4421791567369585 0.15977242756192112 0.44217915673702984 0.159772427561976
 0.4421791567368909 0.15977242756184803 0.44217915673695857 0.15977242756192106 -0.16274215361096342 -0.608245089024182 0.2783838401369464 0.28870023390087907
 0.44217915673694885 0.1597724275619098 0.44217915673702957 0.15977242756197607 0.2783838401369462 0.288700233900879 -0.16274215361078279 -0.6082450890241057
158500000.0 -0.18102147201737423 -0.5985752574639116 0.29601898130144444 0.27980622254209675 0.44250124535785024 0.15938451746110868 0.4425012453579084 0.15938451746117058
 0.29601898130144444 0.27980622254209664 -0.18102147201715388 -0.5985752574638314 0.44250124535791785 0.1593845174611817 0.44250124535798946 0.15938451746123658
 0.4425012453578502 0.15938451746110865 0.4425012453579179 0.15938451746118165 -0.16433412743638895 -0.6072307514651911 0.2793316367204531 0.28846171654336905
 0.4425012453579083 0.15938451746117044 0.44250124535798924 0.1593845174612366 0.27933163672045297 0.288461716543369 -0.16433412743620796 -0.6072307514651151
159000000.0 -0.1825549017401211 -0.597527801797504 0.29691337351831 0.2795315540416788 0.4428207641107906 0.1589981238781148 0.44282076411084886 0.1589981238781765
 0.2969133735183101 0.27953155404167873 -0.18255490173990066 -0.5975278017974239 0.4428207641108584 0.15899812387818762 0.4428207641109302 0.15899812387824253
 0.4428207641107904 0.1589981238781147 0.44282076411085836 0.15899812387818757 -0.1659159942978957 -0.6062172074667742 0.28027446607607875 0.2882209597109419
 0.4428207641108487 0.15899812387817647 0.44282076411092985 0.1589981238782425 0.28027446607607864 0.2882209597109419 -0.16591599429771445 -0.6062172074666982
159500000.0 -0.18407833365725318 -0.5964815960739277 0.2978028557780014 0.27925511239510264 0.4431377389395108 0.1586132418396158 0.4431377389395693 0.15861324183967757
 0.2978028557780014 0.2792551123951026 -0.18407833365703272 -0.5964815960738479 0.4431377389395788 0.15861324183968867 0.4431377389396507 0.15861324183974346
 0.44313773893951053 0.15861324183961573 0.4431377389395788 0.15861324183968858 -0.16748782844614565 -0.6052044886356975 0.28121235056688765 0.28797800495686515
 0.44313773893956904 0.15861324183967737 0.4431377389396504 0.15861324183974335 0.2812123505668876 0.28797800495686515 -0.16748782844596452 -0.6052044886356218
160000000.0 -0.1855918441938406 -0.5954366676446213 0.2986874532325782 0.27897693499529125 0.44345219548051584 0.1582298663248693 0.44345219548057463 0.158229866324931
 0.298687453232578 0.2789769349952911 -0.18559184419361982 -0.5954366676445416 0.44345219548058407 0.1582298663249421 0.44345219548065623 0.1582298663249968
 0.4434521954805157 0.15822986632486927 0.44345219548058423 0.1582298663249421 -0.1690497035902812 -0.604192625930168 0.2821453126290126 0.28773289328083074
 0.4434521954805744 0.15822986632493077 0.443452195480656 0.1582298663249967 0.28214531262901243 0.2877328932808305 -0.1690497035900998 -0.6041926259300925
160500000.0 -0.18709550917733295 -0.5943930432395647 0.29956719104303847 0.2786970587043584 0.4437641590670316 0.15784799226780818 0.4437641590670905 0.15784799226786975
 0.2995671910430385 0.27869705870435846 -0.187095509177112 -0.5943930432394849 0.44376415906710015 0.15784799226788107 0.44376415906717226 0.1578479922679356
 0.4437641590670314 0.15784799226780816 0.44376415906710004 0.15784799226788096 -0.17060169290042293 -0.6031816496704295 0.28307337476612227 0.28748566513521634
 0.4437641590670904 0.15784799226786972 0.44376415906717204 0.15784799226793564 0.2830733747661223 0.2874856651352163 -0.1706016929002414 -0.6031816496703543
161000000.0 -0.18858940384102513 -0.5933507489780394 0.3004420943748624 0.2784155198601531 0.44407365473296556 0.15746761455914915 0.4440736547330246 0.1574676145592108
 0.30044209437486225 0.27841551986015306 -0.18858940384080405 -0.5933507489779598 0.4440736547330344 0.15746761455922204 0.44407365473310667 0.15746761455927652
 0.44407365473296534 0.15746761455914915 0.4440736547330344 0.15746761455922195 -0.17214386901020337 -0.6021715895491995 0.2839965595440345 0.2872363604313062
 0.44407365473302435 0.15746761455921068 0.44407365473310645 0.1574676145592765 0.2839965595440343 0.28723636043130607 -0.17214386901002163 -0.6021715895491242
161500000.0 -0.19007360282754407 -0.5923098103792175 0.3013121883936827 0.2781323542827459 0.4443807072168147 0.15708872804844312 0.4443807072168743 0.15708872804850463
 0.3013121883936826 0.27813235428274585 -0.19007360282732305 -0.5923098103791383 0.44438070721688383 0.1570887280485158 0.44438070721695644 0.15708872804857013
 0.44438070721681455 0.15708872804844315 0.4443807072168839 0.15708872804851584 -0.17367630401933506 -0.6011624746419457 0.28491488958546723 0.2869850185454671
 0.4443807072168739 0.1570887280485045 0.4443807072169561 0.15708872804857016 0.2849148895854671 0.2869850185454669 -0.17367630401915332 -0.6011624746418709
162000000.0 -0.19154818019236067 -0.5912702523725769 0.3021774982610853 0.27784759728085706 0.44468534096552137 0.1567113275460681 0.4446853409655808 0.15671132754612954
 0.30217749826108525 0.27784759728085695 -0.19154818019213918 -0.5912702523724979 0.4446853409655906 0.15671132754614067 0.44468534096566326 0.15671132754619502
 0.44468534096552104 0.156711327546068 0.44468534096559065 0.15671132754614062 -0.17519906949621325 -0.6001543334170076 0.2858283875649317 0.28673167832528057
 0.44468534096558054 0.15671132754612943 0.4446853409656629 0.1567113275461951 0.28582838756493156 0.2867316783252806 -0.17519906949603117 -0.6001543334169327
162500000.0 -0.19301320940731717 -0.5902320993081484 0.3030380491305326 0.27756128365822763 0.44498758013827566 0.1563354078251695 0.4449875801383354 0.1563354078252308
 0.30303804913053256 0.27756128365822763 -0.19301320940709552 -0.5902320993080694 0.4449875801383451 0.1563354078252422 0.444987580138418 0.15633540782529634
 0.44498758013827555 0.15633540782516947 0.44498758013834516 0.15633540782524202 -0.17671223648054835 -0.5991471937455607 0.2867370762037578 0.286476378095633
 0.4449875801383352 0.1563354078252307 0.44498758013841766 0.15633540782529634 0.28673707620375766 0.2864763780956328 -0.17671223648036627 -0.599147193745486
163000000.0 -0.19446876336417898 -0.5891953749665975 0.30389386614340763 0.2772734477199296 0.4452874486102689 0.15596096362354425 0.44528744861032904 0.15596096362360565
 0.3038938661434075 0.27727344771992946 -0.1944687633639574 -0.589195374966519 0.44528744861033875 0.15596096362361664 0.4452874486104118 0.1559609636236709
 0.4452874486102689 0.15596096362354428 0.445287448610339 0.15596096362361664 -0.17821587548603054 -0.5981410829114311 0.28764097826525276 0.28621915566475603
 0.44528744861032876 0.15596096362360554 0.4452874486104116 0.15596096362367096 0.28764097826525264 0.2862191556647559 -0.17821587548584814 -0.5981410829113565
163500000.0 -0.19591491437820052 -0.588160102569143 0.3047449744251768 0.2769841232786177 0.445584969976395 0.15558798964547396 0.4455849699764552 0.15558798964553533
 0.30474497442517673 0.2769841232786176 -0.19591491437797892 -0.5881601025690647 0.4455849699764649 0.15558798964554632 0.4455849699765381 0.15558798964560053
 0.44558496997639485 0.15558798964547396 0.445584969976465 0.15558798964554632 -0.17971005650301952 -0.5971360276207588 0.28854011654998923 0.28596004833022626
 0.4455849699764549 0.15558798964553527 0.4455849699765379 0.1555879896456005 0.288540116549989 0.28596004833022615 -0.17971005650283695 -0.5971360276206842
164000000.0 -0.19735173419170707 -0.5871263047873132 0.3055913990816697 0.2766933436607233 0.4458801675549015 0.15521648056350726 0.4458801675549619 0.15521648056356852
 0.30559139908166966 0.27669334366072323 -0.19735173419148508 -0.5871263047872349 0.4458801675549717 0.15521648056357976 0.44588016755504506 0.15521648056363369
 0.4458801675549013 0.15521648056350726 0.4458801675549716 0.15521648056357962 -0.18119484900126465 -0.5961320540115121 0.28943451389122093 0.28569909288491513
 0.44588016755496157 0.1552164805635683 0.4458801675550447 0.15521648056363363 0.2894345138912209 0.2856990928849149 -0.1811948490010821 -0.596132054011438
164500000.0 -0.19877929397769117 -0.5860940037525452 0.30643316519547037 0.27640114171258784 0.44617306439099297 0.1548464310201919 0.4461730643910535 0.1548464310202531
 0.30643316519547037 0.2764011417125878 -0.19877929397746902 -0.5860940037524672 0.44617306439106336 0.15484643102026413 0.4461730643911368 0.1548464310203182
 0.4461730643909927 0.1548464310201919 0.44617306439106325 0.15484643102026419 -0.18267032193264812 -0.5951291876628578 0.2903241931504208 0.2854363256228935
 0.4461730643910533 0.15484643102025308 0.44617306439113646 0.1548464310203183 0.2903241931504207 0.28543632562289345 -0.18267032193246519 -0.5951291876627837
165000000.0 -0.20019766434342257 -0.5850632210656261 0.3072702978224195 0.2761075498065368 0.44646368326038416 0.15447783562975886 0.4464636832604449 0.1544778356298202
 0.3072702978224193 0.27610754980653673 -0.2001976643432006 -0.5850632210655483 0.4464636832604546 0.15447783562983114 0.44646368326052827 0.15447783562988507
 0.4464636832603838 0.15447783562975892 0.4464636832604547 0.15447783562983114 -0.1841365437339511 -0.5941274536043855 0.29120917721294143 0.2851717823452891
 0.44646368326044455 0.15447783562982 0.446463683260528 0.154477835629885 0.29120917721294126 0.285171782345289 -0.18413654373376812 -0.5941274536043115
165500000.0 -0.2016069153340695 -0.5840339778059832 0.30810282198822375 0.27581259984689466 0.44675204667280494 0.1541106889797595 0.44675204667286583 0.1541106889798207
 0.3081028219882237 0.27581259984689455 -0.20160691533384706 -0.5840339778059055 0.44675204667287577 0.15411068897983166 0.44675204667294954 0.15411068897988559
 0.4467520466728047 0.1541106889797595 0.4467520466728758 0.15411068897983166 -0.18559358232964593 -0.5931268763251912 0.29208948898379367 0.2849054983660958
 0.44675204667286567 0.15411068897982055 0.4467520466729494 0.1541106889798856 0.29208948898379355 0.28490549836609574 -0.18559358232946252 -0.5931268763251174
166000000.0 -0.20300711643632852 -0.5830062945408199 0.30893076268517294 0.2755163232759402 0.44703817687545977 0.15374498563265598 0.4470381768755209 0.15374498563271702
 0.30893076268517267 0.27551632327594017 -0.20300711643610608 -0.5830062945407423 0.4470381768755308 0.15374498563272818 0.4470381768756046 0.15374498563278197
 0.4470381768754595 0.1537449856326559 0.4470381768755308 0.153744985632728 -0.1870415051347045 -0.5921274797828217 0.2929651513835425 0.28463750851793485
 0.44703817687552055 0.15374498563271685 0.44703817687560443 0.15374498563278177 0.2929651513835425 0.28463750851793473 -0.1870415051345213 -0.592127479782748
166500000.0 -0.20439833658206685 -0.5819801913341051 0.3097541448689565 0.2752187510798029 0.44732209585643673 0.15338072012736814 0.4473220958564978 0.1533807201274292
 0.30975414486895647 0.27521875107980287 -0.2043983365818439 -0.5819801913340277 0.4473220958565082 0.15338072012744036 0.447322095856582 0.15338072012749399
 0.44732209585643645 0.15338072012736806 0.4473220958565082 0.15338072012744008 -0.1884803790574312 -0.5911292874120784 0.29383618734431477 0.28436784715776914
 0.44732209585649774 0.153380720127429 0.4473220958565818 0.15338072012749399 0.29383618734431466 0.28436784715776914 -0.18848037905724774 -0.5911292874120048
167000000.0 -0.20578064415196798 -0.5809556877554135 0.3105729934555835 0.27491991379429837 0.44760382534807364 0.1530178869807757 0.4476038253481351 0.15301788698083674
 0.31057299345558337 0.27491991379429814 -0.2057806441517449 -0.5809556877553365 0.44760382534814513 0.15301788698084776 0.4476038253482194 0.15301788698090124
 0.44760382534807347 0.1530178869807757 0.4476038253481453 0.15301788698084773 -0.18991027050230966 -0.5901323221336889 0.29470261980591883 0.28409654817256663
 0.4476038253481348 0.15301788698083654 0.44760382534821913 0.1530178869809013 0.2947026198059186 0.28409654817256647 -0.18991027050212614 -0.5901323221336157
167500000.0 -0.2071541069791882 -0.5799328028886243 0.31138733331839796 0.27461984151070545 0.44788338683027634 0.15265648068917861 0.44788338683033807 0.15265648068923957
 0.31138733331839785 0.2746198415107054 -0.2071541069789651 -0.5799328028885471 0.4478833868303481 0.1526564806892507 0.4478833868304225 0.15265648068930424
 0.44788338683027623 0.15265648068917864 0.4478833868303481 0.1526564806892505 -0.19133124537287052 -0.5891366063628427 0.2955644717120739 0.28382364498491686
 0.44788338683033774 0.15265648068923937 0.44788338683042217 0.15265648068930407 0.2955644717120737 0.28382364498491675 -0.19133124537268684 -0.5891366063627695
168000000.0 -0.20851879235301576 -0.5789115553404742 0.31219718928519297 0.27431856388148373 0.4481608015337921 0.15229649572971513 0.448160801533854 0.15229649572977605
 0.31219718928519297 0.2743185638814837 -0.20851879235279253 -0.5789115553403973 0.44816080153386406 0.15229649572978696 0.4481608015339386 0.15229649572984053
 0.44816080153379206 0.1522964957297152 0.44816080153386423 0.152296495729787 -0.1927433690745724 -0.5881421620175942 0.29642176600674325 0.2835491705585969
 0.44816080153385385 0.15229649572977597 0.44816080153393834 0.15229649572984055 0.2964217660067431 0.2835491705585968 -0.19274336907438844 -0.588142162017521
168500000.0 -0.20987476702253413 -0.5778919632489731 0.31300258613541593 0.2740161101259327 0.44843609044343985 0.1519379265617414 0.4484360904435019 0.1519379265618023
 0.3130025861354159 0.27401611012593263 -0.20987476702231073 -0.5778919632488965 0.448436090443512 0.15193792656181335 0.4484360904435868 0.15193792656186672
 0.4484360904434396 0.15193792656174132 0.44843609044351207 0.1519379265618132 -0.1941467065176988 -0.5871490105271371 0.29727452563057405 0.2832731574040895
 0.4484360904435015 0.15193792656180205 0.44843609044358634 0.15193792656186655 0.29727452563057394 0.28327315740408937 -0.19414670651751487 -0.5871490105270641
169000000.0 -0.2112220972002908 -0.5768740442916813 0.3138035485974653 0.2737125090357882 0.44870927430129326 0.15158076762816886 0.4487092743013555 0.15158076762822972
 0.3138035485974653 0.2737125090357881 -0.2112220972000673 -0.576874044291605 0.44870927430136565 0.15158076762824055 0.44870927430144053 0.15158076762829387
 0.4487092743012931 0.15158076762816886 0.4487092743013657 0.1515807676282405 -0.19554132212026892 -0.5861571728399497 0.29812277351743677 0.2829956375840495
 0.44870927430135515 0.15158076762822953 0.4487092743014402 0.1515807676282939 0.2981227735174367 0.2829956375840494 -0.19554132212008482 -0.5861571728398769
169500000.0 -0.2125608485659663 -0.5758578156938503 0.3146001013460778 0.2734077889807649 0.44898037360982435 0.15122501335676597 0.4489803736098869 0.15122501335682673
 0.31460010134607774 0.27340778898076473 -0.2125608485657425 -0.5758578156937741 0.448980373609897 0.15122501335683755 0.44898037360997206 0.15122501335689092
 0.44898037360982423 0.15122501335676589 0.4489803736098969 0.15122501335683755 -0.19692727981096006 -0.5851666694318156 0.298966532591065 0.28271664271872315
 0.44898037360988663 0.15122501335682653 0.44898037360997173 0.15122501335689087 0.29896653259106476 0.282716642718723 -0.1969272798107755 -0.585166669431743
170000000.0 -0.21389108627004413 -0.5748432942364297 0.3153922689998015 0.2731019779140359 0.44924940863500135 0.15087065816142112 0.449249408635064 0.1508706581614819
 0.3153922689998014 0.27310197791403584 -0.21389108626982034 -0.5748432942363536 0.44924940863507423 0.15087065816149284 0.44924940863514934 0.15087065816154607
 0.44924940863500107 0.15087065816142117 0.4492494086350744 0.15087065816149284 -0.198304643032041 -0.5841775203137163 0.29980582576179166 0.28243620399131564
 0.44924940863506385 0.15087065816148176 0.4492494086351492 0.15087065816154613 0.2998058257617916 0.2824362039913155 -0.19830464303185638 -0.5841775203136439
170500000.0 -0.2152128749374833 -0.5738304962639447 0.3161800761185533 0.2727951033776552 0.4495163994093448 0.15051769644336985 0.44951639940940774 0.15051769644343044
 0.31618007611855314 0.27279510337765517 -0.21521287493725952 -0.5738304962638686 0.4495163994094178 0.1505176964434415 0.4495163994094931 0.15051769644349464
 0.4495163994093445 0.15051769644336987 0.4495163994094178 0.15051769644344148 -0.19967347474231834 -0.5831897450396057 0.30064067592338156 0.28215435215330953
 0.4495163994094074 0.15051769644343033 0.4495163994094929 0.15051769644349453 0.30064067592338145 0.28215435215330936 -0.19967347474213346 -0.5831897450395336
171000000.0 -0.21652627867138696 -0.5728194376922412 0.31696354720126085 0.27248719250792186 0.44978136573494265 0.15016612259238582 0.44978136573500566 0.15016612259244635
 0.31696354720126074 0.2724871925079218 -0.2165262786711631 -0.5728194376921656 0.449781365735016 0.15016612259245732 0.44978136573509137 0.1501661225925103
 0.4497813657349427 0.15016612259238582 0.44978136573501615 0.15016612259245715 -0.20103383742008799 -0.5822033627140598 0.30147110594995535 0.28187111752973343
 0.44978136573500543 0.15016612259244633 0.44978136573509114 0.15016612259251033 0.30147110594995513 0.2818711175297334 -0.2010338374199031 -0.5822033627139875
171500000.0 -0.21783136105667197 -0.5718101340161064 0.3177427066835836 0.2721782720406849 0.4500443271864236 0.14981593098793786 0.4500443271864868 0.1498159309879984
 0.3177427066835835 0.27217827204068484 -0.2178313610564479 -0.5718101340160309 0.45004432718649706 0.14981593098800924 0.45004432718657267 0.14981593098806228
 0.4500443271864235 0.14981593098793794 0.4500443271864971 0.1498159309880092 -0.2023857930660995 -0.5812183919998087 0.3022971386930044 0.28158653002438044
 0.45004432718648646 0.1498159309879982 0.45004432718657233 0.14981593098806212 0.30229713869300423 0.28158653002438017 -0.2023857930659146 -0.5812183919997369
172000000.0 -0.21912818516373472 -0.570802600316761 0.31851757893571353 0.2718683683165907 0.45030530311388955 0.14946711600031345 0.45030530311395306 0.149467116000374
 0.3185175789357134 0.2718683683165906 -0.21912818516351038 -0.5708026003166857 0.45030530311396333 0.1494671160003848 0.45030530311403905 0.14946711600043777
 0.4503053031138895 0.14946711600031337 0.4503053031139634 0.14946711600038468 -0.20372940320652363 -0.5802348511251536 0.30311879697849603 0.28130061912497617
 0.4503053031139528 0.1494671160003738 0.4503053031140388 0.1494671160004376 0.303118796978496 0.28130061912497606 -0.20372940320633845 -0.5802348511250818
172500000.0 -0.22041681355211276 -0.5697968512692313 0.31928818826025307 0.27155750728627254 0.4505643126458088 0.14911967199170845 0.4505643126458723 0.14911967199176893
 0.31928818826025296 0.27155750728627237 -0.22041681355188852 -0.5697968512691562 0.4505643126458827 0.14911967199177967 0.4505643126459585 0.14911967199183243
 0.45056431264580865 0.14911967199170847 0.45056431264588287 0.1491196719917797 -0.20506472889592955 -0.5792527578912632 0.3039361036040631 0.2810134139082974
 0.45056431264587193 0.1491196719917688 0.4505643126459582 0.14911967199183257 0.30393610360406287 0.2810134139082973 -0.2050647288957443 -0.5792527578911912
173000000.0 -0.2216973082741456 -0.5687929011495956 0.3200545588901668 0.27124571451548274 0.4508213746918681 0.14877359331728648 0.450821374691932 0.14877359331734677
 0.3200545588901667 0.2712457145154828 -0.22169730827392112 -0.5687929011495204 0.4508213746919422 0.14877359331735784 0.4508213746920182 0.14877359331741055
 0.4508213746918681 0.14877359331728648 0.4508213746919424 0.14877359331735768 -0.20639183072026565 -0.5782721296793606 0.3047490813362803 0.2807249430452409
 0.4508213746919315 0.1487735933173467 0.45082137469201794 0.1487735933174104 0.3047490813362799 0.28072494304524076 -0.20639183072008044 -0.578272129679289
173500000.0 -0.22296973087862637 -0.5677907638421149 0.320816714986808 0.2709330151901669 0.4510765079457875 0.14842887432620522 0.4510765079458514 0.1484288743262656
 0.3208167149868079 0.2709330151901667 -0.22296973087840155 -0.5677907638420403 0.45107650794586196 0.14842887432627638 0.45107650794593807 0.148428874326329
 0.45107650794578746 0.14842887432620525 0.45107650794586207 0.14842887432627636 -0.20771076879984626 -0.5772929834577959 0.30555775290802145 0.28043523480584104
 0.45107650794585125 0.14842887432626542 0.45107650794593784 0.14842887432632912 0.3055577529080213 0.28043523480584087 -0.2077107687996608 -0.5772929834577245
174000000.0 -0.22423414241445006 -0.5667904528462445 0.32157468063801575 0.2706194341214814 0.45132973088809547 0.14808550936261358 0.4513297308881595 0.14808550936267398
 0.32157468063801575 0.2706194341214814 -0.22423414241422543 -0.5667904528461698 0.4513297308881698 0.14808550936268475 0.45132973088824624 0.14808550936273748
 0.45132973088809525 0.14808550936261367 0.4513297308881699 0.14808550936268472 -0.2090216027923416 -0.5763153357890085 0.30636214101590037 0.2801443170642384
 0.45132973088815925 0.14808550936267392 0.4513297308882459 0.14808550936273737 0.30636214101590026 0.28014431706423826 -0.2090216027921558 -0.5763153357889371
174500000.0 -0.22549060343425614 -0.5657919812835281 0.3223284798562814 0.27030499575075484 0.4515810617888656 0.1477434927666199 0.45158106178892976 0.14774349276668008
 0.3223284798562813 0.2703049957507548 -0.2254906034340313 -0.5657919812834538 0.45158106178894036 0.14774349276669096 0.45158106178901664 0.1477434927667435
 0.45158106178886526 0.14774349276661974 0.4515810617889403 0.14774349276669071 -0.2103243918957694 -0.5753392028363805 0.30716226831778765 0.2798522173035998
 0.45158106178892937 0.14774349276668 0.4515810617890164 0.14774349276674348 0.3071622683177875 0.27985221730359977 -0.21032439189558327 -0.575339202836309
175000000.0 -0.22673917399806168 -0.5647953619043805 0.3230781365769833 0.2699897241543916 0.4518305187104169 0.14740281887522869 0.45183051871048147 0.14740281887528897
 0.3230781365769832 0.26998972415439143 -0.22673917399783658 -0.5647953619043063 0.451830518710492 0.14740281887529957 0.4518305187105687 0.14740281887535214
 0.45183051871041685 0.14740281887522866 0.4518305187104922 0.14740281887529955 -0.2116191948514921 -0.5743646003709818 0.30795815743040705 0.27955896262098573
 0.45183051871048124 0.14740281887528867 0.45183051871056845 0.14740281887535206 0.30795815743040683 0.2795589626209856 -0.21161919485130606 -0.5743646003709107
175500000.0 -0.2279799136768885 -0.5638006070947562 0.32382367465668815 0.26967364304872093 0.45207811950997784 0.14706348202325276 0.45207811951004245 0.14706348202331285
 0.3238236746566881 0.26967364304872093 -0.2279799136766633 -0.563800607094682 0.452078119510053 0.14706348202332364 0.45207811951012966 0.14706348202337605
 0.4520781195099777 0.14706348202325278 0.452078119510053 0.14706348202332362 -0.21290606994721317 -0.5733915437782126 0.30874983092700625 0.2792645797321705
 0.4520781195100421 0.14706348202331268 0.4520781195101294 0.14706348202337594 0.30874983092700603 0.27926457973217045 -0.21290606994702724 -0.5733915437781418
176000000.0 -0.22921288155638125 -0.5628077288827077 0.3245651178715163 0.2693567757947896 0.4523238818423099 0.14672547654419552 0.45232388184237476 0.1467254765442555
 0.32456511787151626 0.2693567757947894 -0.22921288155615602 -0.5628077288826338 0.45232388184238526 0.14672547654426618 0.45232388184246214 0.14672547654431858
 0.4523238818423096 0.14672547654419538 0.45232388184238526 0.14672547654426613 -0.21418507501997386 -0.5724200480643374 0.30953731133510193 0.2789690949764123
 0.4523238818423744 0.14672547654425522 0.45232388184246186 0.1467254765443185 0.3095373113351019 0.27896909497641215 -0.21418507501978742 -0.5724200480642668
176500000.0 -0.23043813624041706 -0.5618167389448373 0.3253024899155706 0.26903914540309815 0.45256782316230054 0.14638879677110683 0.4525678231623655 0.1463887967711668
 0.3253024899155704 0.2690391454030979 -0.2304381362401915 -0.5618167389447635 0.45256782316237615 0.1463887967711776 0.452567823162453 0.1463887967712298
 0.45256782316230026 0.14638879677110675 0.4525678231623761 0.14638879677117753 -0.21545626745915042 -0.571450127862919 0.3103206211342969 0.2786725343211729
 0.4525678231623652 0.14638879677116667 0.4525678231624529 0.14638879677122987 0.3103206211342969 0.27867253432117284 -0.21545626745896385 -0.5714501278628485
177000000.0 -0.23165573585470417 -0.560827648612638 0.3260358143994255 0.26872077453828436 0.4528099607275163 0.14605343703741494 0.4528099607275814 0.14605343703747484
 0.3260358143994254 0.26872077453828425 -0.2316557358544786 -0.5608276486125644 0.45280996072759194 0.14605343703748566 0.4528099607276691 0.14605343703753781
 0.45280996072751617 0.14605343703741505 0.4528099607275922 0.1460534370374857 -0.21671970420945225 -0.5704817974411511 0.3110997827541668 0.2783749233667908
 0.45280996072758123 0.14605343703747486 0.452809960727669 0.14605343703753793 0.3110997827541666 0.2783749233667907 -0.21671970420926576 -0.5704817974410807
177500000.0 -0.23286573805037175 -0.5598404688787328 0.3267651148486784 0.26840168552375027 0.45305031160072373 0.14571939167773035 0.45305031160078907 0.14571939167779022
 0.3267651148486783 0.26840168552375016 -0.23286573805014624 -0.5598404688786595 0.4530503116007996 0.14571939167780087 0.4530503116008769 0.145719391677853
 0.45305031160072357 0.14571939167773046 0.4530503116007998 0.1457193916778009 -0.21797544177391667 -0.5695150707060911 0.31187481857221633 0.27807628735110185
 0.4530503116007887 0.14571939167779005 0.4530503116008765 0.14571939167785297 0.31187481857221605 0.2780762873511016 -0.21797544177373007 -0.5695150707060208
178000000.0 -0.23406820000754852 -0.5588552104030085 0.32749041470255547 0.26808190034623536 0.4532888926523732 0.14538665502862666 0.4532888926524387 0.14538665502868656
 0.32749041470255535 0.26808190034623525 -0.23406820000732295 -0.5588552104029352 0.4532888926524493 0.1453866550286971 0.4532888926525267 0.14538665502874917
 0.4532888926523731 0.1453866550286268 0.4532888926524495 0.14538665502869708 -0.21922353621690185 -0.568549961210794 0.31264575091190194 0.2777766511540141
 0.4532888926524383 0.14538665502868636 0.4532888926525265 0.14538665502874915 0.3126457509119017 0.27777665115401395 -0.219223536216715 -0.5685499612107239
178500000.0 -0.2352631784389296 -0.5578718835186478 0.3282117373125793 0.26776144066033597 0.45352572056305174 0.1450552214293971 0.4535257205631173 0.1450552214294569
 0.3282117373125792 0.26776144066033586 -0.2352631784387037 -0.5578718835185746 0.45352572056312795 0.14505522142946756 0.45352572056320545 0.14505522142951952
 0.4535257205630515 0.14505522142939717 0.45352572056312807 0.14505522142946756 -0.2204640431670787 -0.5675864821603512 0.31341260204072147 0.2774760393020324
 0.45352572056311713 0.14505522142945682 0.4535257205632052 0.14505522142951952 0.3134126020407213 0.2774760393020323 -0.22046404316689167 -0.5675864821602812
179000000.0 -0.2364507295933321 -0.5568904982380616 0.3289291059412871 0.26744032779297083 0.4537608118258986 0.1447250852227877 0.45376081182596456 0.14472508522284744
 0.3289291059412871 0.26744032779297067 -0.23645072959310598 -0.5568904982379885 0.4537608118259752 0.144725085222858 0.453760811826053 0.14472508522291003
 0.4537608118258985 0.1447250852227877 0.45376081182597533 0.14472508522285812 -0.22169701782041767 -0.5666246464178325 0.314175394168366 0.27717447597273503
 0.4537608118259641 0.1447250852228471 0.45376081182605255 0.14472508522290983 0.31417539416836576 0.27717447597273476 -0.2216970178202308 -0.5666246464177629
179500000.0 -0.23763090925923797 -0.5559110642587219 0.3296425437610065 0.26711858274779415 0.4539941827489917 0.14439624075570712 0.4539941827490577 0.14439624075576687
 0.3296425437610063 0.26711858274779404 -0.23763090925901176 -0.5559110642586491 0.45399418274906844 0.14439624075577745 0.45399418274914627 0.14439624075582924
 0.45399418274899167 0.1443962407557072 0.45399418274906855 0.14439624075577745 -0.22292251494317342 -0.5656644665101366 0.314934149444935 0.2768719849992019
 0.4539941827490577 0.14439624075576657 0.4539941827491461 0.1443962407558291 0.3149341494449349 0.2768719849992017 -0.22292251494298634 -0.5656644665100671
180000000.0 -0.23880377276832482 -0.5549335909688983 0.33035207385268145 0.26679622620955584 0.4542258494576975 0.14406868237991569 0.4542258494577637 0.14406868237997536
 0.33035207385268145 0.26679622620955573 -0.2388037727680985 -0.5549335909688257 0.4542258494577745 0.1440686823799859 0.4542258494578523 0.14406868238003767
 0.4542258494576973 0.1440686823799155 0.45422584945777444 0.14406868237998574 -0.2241405888748634 -0.5647059546337457 0.315688889959213 0.2765685898743961
 0.4542258494577633 0.1440686823799752 0.45422584945785205 0.14406868238003762 0.3156888899592129 0.27656858987439603 -0.22414058887467592 -0.5647059546336759
180500000.0 -0.23996937499898288 -0.5539580874532986 0.3310577192047517 0.2664732785484081 0.4544558278969912 0.14374240445269038 0.45445582789705735 0.14374240445274974
 0.33105771920475163 0.2664732785484081 -0.2399693749987565 -0.5539580874532261 0.45445582789706834 0.1437424044527605 0.4544558278971462 0.14374240445281214
 0.45445582789699107 0.14374240445269038 0.4544558278970684 0.14374240445276049 -0.22535129353124322 -0.5637491226603922 0.31643963773700506 0.2762643137554951
 0.45445582789705724 0.14374240445274977 0.454455827897146 0.14374240445281222 0.316439637737005 0.2762643137554951 -0.22535129353105587 -0.5637491226603228
181000000.0 -0.2411277703798183 -0.552984562498614 0.33175950271208005 0.2661497598241629 0.45468413383374456 0.14341740133747172 0.45468413383381084 0.14341740133753128
 0.33175950271208016 0.2661497598241629 -0.2411277703795916 -0.5529845624985418 0.4546841338338219 0.14341740133754186 0.4546841338339 0.1434174013375935
 0.45468413383374434 0.14341740133747188 0.4546841338338219 0.14341740133754188 -0.22655468240727594 -0.562793982142636 0.31718641473953063 0.27595917946817805
 0.4546841338338108 0.14341740133753123 0.45468413383389966 0.14341740133759348 0.3171864147395306 0.27595917946817805 -0.2265546824070883 -0.5627939821425667
181500000.0 -0.2422790128931423 -0.5520130245989758 0.33245744717492975 0.2658256897904944 0.45491078285898173 0.14309366740448795 0.45491078285904823 0.14309366740454732
 0.33245744717492953 0.26582568979049437 -0.24227901289291578 -0.5520130245989036 0.45491078285905906 0.14309366740455806 0.4549107828591373 0.14309366740460946
 0.4549107828589816 0.14309366740448795 0.4549107828590592 0.14309366740455792 -0.22775080858009406 -0.5618405443193506 0.3179292428618743 0.27565320951086236
 0.454910782859048 0.14309366740454726 0.4549107828591371 0.14309366740460955 0.31792924286187413 0.2756532095108622 -0.22775080857990637 -0.5618405443192812
182000000.0 -0.2434231560784474 -0.5510434819613154 0.33315157529798817 0.2655010878990935 0.4551357903901048 0.1427711970313594 0.45513579039017144 0.1427711970314187
 0.333151575297988 0.2655010878990934 -0.24342315607822093 -0.5510434819612433 0.4551357903901823 0.14277119703142926 0.45513579039026064 0.14277119703148072
 0.4551357903901046 0.14277119703135938 0.4551357903901826 0.14277119703142915 -0.22893972471195803 -0.5608888201211245 0.3186681439314918 0.2753464260588956
 0.45513579039017116 0.14277119703141847 0.4551357903902606 0.14277119703148058 0.3186681439314917 0.2753464260588955 -0.22893972471177038 -0.5608888201210555
182500000.0 -0.24456025303586656 -0.5500759425106398 0.3338419096894386 0.26517597330376963 0.45535917167308887 0.14244998460368435 0.45535917167315587 0.14244998460374358
 0.3338419096894385 0.26517597330376963 -0.24456025303563983 -0.5500759425105679 0.4553591716731667 0.14244998460375422 0.4553591716732453 0.14244998460380554
 0.45535917167308876 0.14244998460368438 0.45535917167316686 0.1424499846037541 -0.23012148305320554 -0.5599388201755777 0.3194031397067706 0.2750388509687007
 0.45535917167315554 0.1424499846037435 0.45535917167324486 0.14244998460380545 0.3194031397067703 0.27503885096870057 -0.23012148305301772 -0.5599388201755088
183000000.0 -0.24569035642961798 -0.5491104138952158 0.33452847286007387 0.2648503648645043 0.45558094178464686 0.14213002451560594 0.455580941784714 0.14213002451566528
 0.33452847286007376 0.2648503648645042 -0.24569035642939108 -0.5491104138951439 0.4555809417847248 0.14213002451567572 0.4555809417848034 0.14213002451572712
 0.4555809417846467 0.142130024515606 0.4555809417847249 0.14213002451567575 -0.2312961354451935 -0.5589905548125917 0.3201342518756422 0.27473050578187347
 0.45558094178471353 0.14213002451566514 0.45558094178480313 0.1421300245157271 0.32013425187564204 0.27473050578187336 -0.23129613544500544 -0.5589905548125228
183500000.0 -0.24681351849143565 -0.5481469034916684 0.3352112872224565 0.2645242811514524 0.4558011156343642 0.14181131117035944 0.4558011156344315 0.14181131117041856
 0.33521128722245636 0.2645242811514523 -0.24681351849120892 -0.5481469034915968 0.45580111563444226 0.1418113111704291 0.4558011156345209 0.14181131117048038
 0.45580111563436404 0.14181131117035936 0.4558011156344424 0.141811311170429 -0.2324637333232336 -0.5580440340694584 0.32086150205424724 0.2744214117292356
 0.45580111563443115 0.1418113111704185 0.45580111563452075 0.14181131117048035 0.32086150205424707 0.2744214117292355 -0.23246373332304537 -0.5580440340693896
184000000.0 -0.24792979102398255 -0.5471854184099948 0.3358903750901206 0.26419774044889643 0.45601970796680524 0.14149383898080173 0.45601970796687286 0.1414938389808609
 0.33589037509012043 0.26419774044889627 -0.2479297910237555 -0.5471854184099234 0.4560197079668837 0.14149383898087134 0.4560197079669627 0.14149383898092252
 0.4560197079668052 0.1414938389808018 0.45601970796688385 0.1414938389808714 -0.23362432771951921 -0.5570992676959456 0.3215849117856502 0.27411158973484046
 0.45601970796687247 0.14149383898086076 0.4560197079669623 0.1414938389809225 0.32158491178564985 0.27411158973484023 -0.2336243277193309 -0.5570992676958771
184500000.0 -0.24903922540424792 -0.5462259654984934 0.33656575867681443 0.2638707607591505 0.45623673336359094 0.1411776023699247 0.45623673336365844 0.14117760236998383
 0.3365657586768143 0.2638707607591505 -0.24903922540402051 -0.5462259654984221 0.4562367333636695 0.14117760236999433 0.45623673336374854 0.14117760237004545
 0.4562367333635908 0.14117760236992477 0.45623673336366954 0.14117760236999427 -0.23477796926604289 -0.5561562651592844 0.3223045025386021 0.2738010604199347
 0.45623673336365816 0.14117760236998383 0.4562367333637483 0.1411776023700455 0.322304502538602 0.27380106041993457 -0.23477796926585426 -0.5561562651592159
185000000.0 -0.2501418725869289 -0.5452685513486096 0.33723746009578437 0.26354335980641713 0.45645220624544597 0.14086259577135038 0.45645220624551386 0.14086259577140933
 0.3372374600957844 0.263543359806417 -0.25014187258670106 -0.5452685513485387 0.456452206245525 0.14086259577141985 0.45645220624560406 0.14086259577147084
 0.4564522062454459 0.14086259577135046 0.45645220624552507 0.14086259577142002 -0.2359247081975052 -0.5552150356490737 0.3230202957063538 0.2734898441068747
 0.4564522062455136 0.14086259577140917 0.45645220624560384 0.1408625957714708 0.3230202957063537 0.2734898441068745 -0.23592470819731665 -0.5552150356490058
185500000.0 -0.2512377831077936 -0.5443131822997025 0.3379055013590978 0.2632155550405947 0.4566661408742217 0.14054881362980917 0.4566661408742895 0.14054881362986812
 0.3379055013590977 0.2632155550405946 -0.25123778310756606 -0.5443131822996314 0.4566661408743007 0.14054881362987862 0.45666614087437984 0.14054881362992955
 0.45666614087422136 0.140548813629809 0.4566661408743007 0.14054881362987837 -0.23706459435421584 -0.5542755880821117 0.32373231260551266 0.2731779608229969
 0.4566661408742893 0.1405488136298679 0.4566661408743797 0.14054881362992944 0.32373231260551266 0.27317796082299683 -0.2370645943540269 -0.5542755880820436
186000000.0 -0.2523270070870313 -0.5433598644437296 0.33856990437700457 0.26288736364103743 0.45687855135488703 0.140236250401602 0.4568785513549549 0.14023625040166096
 0.3385699043770044 0.2628873636410374 -0.25232700708680356 -0.5433598644436588 0.45687855135496613 0.1402362504016715 0.4568785513550455 0.1402362504017224
 0.4568785513548867 0.1402362504016022 0.45687855135496613 0.1402362504016715 -0.23819767718498186 -0.5533379311071438 0.3244405744749477 0.2728654303044451
 0.4568785513549546 0.14023625040166082 0.45687855135504524 0.14023625040172236 0.3244405744749475 0.27286543030444493 -0.23819767718479296 -0.553337931107076
186500000.0 -0.2534095942325797 -0.5424086036298539 0.3392306909573345 0.2625588025202704 0.45708945163749587 0.13992490055504886 0.4570894516375641 0.13992490055510773
 0.3392306909573344 0.2625588025202703 -0.25340959423235176 -0.542408603629783 0.4570894516375753 0.13992490055511816 0.45708945163765485 0.13992490055516907
 0.4570894516374957 0.1399249005550489 0.4570894516375754 0.1399249005551181 -0.23932400574998902 -0.5524020731095428 0.3251451024747366 0.2725522719999527
 0.4570894516375638 0.13992490055510767 0.45708945163765463 0.139924900555169 0.3251451024747364 0.2725522719999526 -0.23932400574979976 -0.5524020731094749
187000000.0 -0.2544855938434389 -0.5414594054689735 0.3398878828049331 0.26222988832765465 0.457298855519126 0.13961475857091754 0.4572988555191944 0.1396147585709764
 0.33988788280493293 0.26222988832765465 -0.2544855938432109 -0.5414594054689029 0.4572988555192057 0.13961475857098685 0.4572988555192853 0.13961475857103756
 0.45729885551912586 0.13961475857091749 0.45729885551920557 0.13961475857098662 -0.24044362872367103 -0.551468022215907 0.3258459176851578 0.27223850507458125
 0.4572988555191941 0.1396147585709762 0.45729885551928495 0.13961475857103742 0.3258459176851577 0.27223850507458114 -0.24044362872348174 -0.5514680222158392
187500000.0 -0.25555505481296636 -0.5405122753381748 0.34054150152113066 0.2619006374530089 0.45750677664579104 0.13930581894284227 0.4575067766458595 0.13930581894290095
 0.34054150152113055 0.2619006374530088 -0.25555505481273866 -0.5405122753381046 0.4575067766458707 0.13930581894291127 0.45750677664595035 0.13930581894296193
 0.45750677664579087 0.13930581894284222 0.45750677664587075 0.1393058189429112 -0.24155659439756755 -0.5505357862985898 0.32654304110572446 0.2719241484134169
 0.45750677664585915 0.13930581894290078 0.4575067766459501 0.13930581894296193 0.3265430411057243 0.2719241484134168 -0.2415565943973784 -0.550535786298522
188000000.0 -0.2566180256321544 -0.5395672183851116 0.3411915686032464 0.2615710660301838 0.4577132285143271 0.138998076177724 0.4577132285143956 0.13899807617778265
 0.3411915686032463 0.2615710660301839 -0.25661802563192665 -0.5395672183850414 0.4577132285144068 0.1389980761777931 0.4577132285144866 0.1389980761778437
 0.4577132285143268 0.1389980761777242 0.4577132285144068 0.13899807617779314 -0.24266295068317403 -0.5496053729801552 0.32723649365425866 0.27160922062522114
 0.4577132285143953 0.1389980761777826 0.4577132285144862 0.13899807617784368 0.3272364936542585 0.27160922062522097 -0.2426629506829849 -0.5496053729800879
188500000.0 -0.2576745543928882 -0.5386242395323085 0.3418381054441262 0.2612411899405923 0.45791822447425373 0.13869152479611957 0.45791822447432257 0.13869152479617816
 0.341838105444126 0.26124118994059214 -0.2576745543926602 -0.5386242395322387 0.4579182244743337 0.13869152479618838 0.4579182244744137 0.13869152479623892
 0.45791822447425357 0.1386915247961196 0.45791822447433383 0.13869152479618846 -0.24376274511477639 -0.5486767896377636 0.3279262961660071 0.2712937400460407
 0.4579182244743222 0.1386915247961781 0.4579182244744135 0.13869152479623897 0.3279262961660069 0.27129374004604057 -0.2437627451145869 -0.5486767896376962
189000000.0 -0.2587246887911867 -0.537683343481396 0.3424811333317124 0.2609110248166931 0.45812177772961 0.13838615933261353 0.4581217777296788 0.13838615933267215
 0.3424811333317123 0.26091102481669304 -0.25872468879095867 -0.5376833434813261 0.45812177772969004 0.1383861593326824 0.45812177772977003 0.1383861593327329
 0.45812177772960977 0.13838615933261358 0.45812177772969004 0.1383861593326823 -0.24485602485227675 -0.5477500434074843 0.32861246939279476 0.27097772474277454
 0.4581217777296785 0.1383861593326721 0.45812177772976975 0.1383861593327329 0.3286124693927946 0.27097772474277454 -0.24485602485208716 -0.547750043407417
189500000.0 -0.25976847613042614 -0.5367445347172681 0.3431206734486449 0.26058058604543244 0.45832390134076306 0.138081974336181 0.4583239013408321 0.13808197433623942
 0.3431206734486448 0.2605805860454324 -0.25976847613019793 -0.5367445347171984 0.4583239013408435 0.13808197433624977 0.45832390134092355 0.1380819743363001
 0.4583239013407628 0.13808197433618105 0.4583239013408434 0.13808197433624972 -0.24594283668400654 -0.5468251411885419 0.3292950340022177 0.2706611925166996
 0.45832390134083184 0.1380819743362394 0.4583239013409233 0.13808197433630007 0.32929503400221766 0.2706611925166995 -0.24594283668381678 -0.546825141188475
190000000.0 -0.2608059633245418 -0.5358078175121764 0.3437567468718937 0.2602498887716398 0.45852460822619623 0.13777896437053255 0.45852460822626545 0.13777896437059092
 0.3437567468718936 0.2602498887716397 -0.2608059633243133 -0.535807817512107 0.45852460822627683 0.13777896437060128 0.4585246082263571 0.1377789643706515
 0.45852460822619595 0.13777896437053266 0.458524608226277 0.1377789643706014 -0.24702322702952814 -0.5459020896474949 0.32997401057687265 0.2703441609069517
 0.4585246082262652 0.13777896437059078 0.458524608226357 0.1377789643706515 0.32997401057687253 0.2703441609069515 -0.24702322702933852 -0.5459020896474281
190500000.0 -0.26183719690121315 -0.5348731959297509 0.34438937457241986 0.259918947901381 0.4587239111642689 0.13747712401445056 0.45872391116433825 0.1374771240145089
 0.3443893745724198 0.2599189479013809 -0.2618371969009847 -0.5348731959296815 0.4587239111643495 0.13747712401451923 0.4587239111644299 0.1374771240145694
 0.45872391116426864 0.13747712401445047 0.45872391116434946 0.137477124014519 -0.24809724194242308 -0.5449808952223459 0.33064941961362215 0.2700266471939689
 0.45872391116433775 0.13747712401450873 0.45872391116442957 0.13747712401456935 0.330649419613622 0.2700266471939688 -0.248097241942233 -0.544980895222279
191000000.0 -0.2628622230050314 -0.5339406738289545 0.34501857741486747 0.2595877781052676 0.45892182279495375 0.13717644786210983 0.45892182279502325 0.13717644786216793
 0.34501857741486736 0.2595877781052675 -0.26286222300480255 -0.5339406738288852 0.45892182279503474 0.13717644786217836 0.45892182279511523 0.1371764478622285
 0.4589218227949535 0.13717644786210986 0.45892182279503485 0.13717644786217834 -0.24916492711306765 -0.5440615641265854 0.33132128152289614 0.26970866840289187
 0.45892182279502297 0.13717644786216784 0.458921822795115 0.13717644786222852 0.3313212815228961 0.2697086684028917 -0.24916492711287774 -0.5440615641265188
191500000.0 -0.26388108740064353 -0.5330102548679694 0.3456443761572815 0.25925639382172583 0.4591183556215527 0.13687693052338906 0.45911835562162234 0.13687693052344724
 0.34564437615728133 0.25925639382172566 -0.2638810874004148 -0.5330102548679004 0.4591183556216338 0.13687693052345748 0.45911835562171444 0.13687693052350752
 0.45911835562155234 0.13687693052338895 0.45911835562163383 0.13687693052345748 -0.2502263278713979 -0.543144102353174 0.33198961662802834 0.26939024130692363
 0.45911835562162195 0.13687693052344704 0.45911835562171416 0.13687693052350747 0.3319896166280282 0.2693902413069236 -0.25022632787120797 -0.5431441023531075
192000000.0 -0.2648938354758821 -0.5320819425080207 0.34626679145085487 0.25892480926022077 0.4593135220123851 0.1365785666241685 0.4593135220124551 0.13657856662422654
 0.3462667914508547 0.2589248092602206 -0.2648938354756531 -0.5320819425079517 0.45931352201246645 0.13657856662423687 0.45931352201254727 0.13657856662428686
 0.4593135220123849 0.1365785666241684 0.45931352201246645 0.13657856662423684 -0.2512814891896585 -0.542228515678457 0.3326544451646237 0.2690713824306502
 0.4593135220124547 0.13657856662422635 0.45931352201254694 0.1365785666242868 0.33265444516462345 0.26907138243065 -0.25128148918946824 -0.5422285156783907
192500000.0 -0.26590051224487193 -0.5311557400171327 0.3468858438397004 0.25859303840443904 0.4595073342024572 0.136281350806616 0.45950733420252704 0.1362813508066741
 0.3468858438397002 0.258593038404439 -0.26590051224464306 -0.531155740017064 0.45950733420253853 0.13628135080668438 0.4595073342026194 0.13628135080673418
 0.45950733420245704 0.1362813508066162 0.45950733420253864 0.13628135080668438 -0.2523304556851404 -0.5413148096660184 0.3333157872799614 0.26875210805331834
 0.4595073342025269 0.13628135080667408 0.45950733420261913 0.13628135080673429 0.3333157872799612 0.2687521080533182 -0.25233045568495016 -0.5413148096659522
193000000.0 -0.26690116235112 -0.5302316504738224 0.34750155376065056 0.25826109501543376 0.459699804295106 0.13598527772946445 0.45969980429517604 0.13598527772952232
 0.34750155376065056 0.2582610950154338 -0.26690116235089106 -0.5302316504737534 0.4596998042951875 0.13598527772953278 0.45969980429526847 0.1359852777295825
 0.4596998042951058 0.13598527772946456 0.4596998042951875 0.1359852777295327 -0.25337327162290535 -0.540402989670473 0.3339736630324285 0.268432434212078
 0.4596998042951758 0.13598527772952235 0.4596998042952681 0.13598527772958252 0.33397366303242826 0.26843243421207785 -0.25337327162271517 -0.5404029896704068
193500000.0 -0.2678958300705841 -0.5293096767707305 0.34811394154308073 0.2579289926347238 0.4598909442636227 0.13569034206827468 0.4598909442636928 0.13569034206833278
 0.3481139415430806 0.2579289926347236 -0.26789583007035517 -0.5293096767706623 0.4598909442637044 0.1356903420683427 0.45989094426378546 0.13569034206839256
 0.45989094426362254 0.1356903420682747 0.4598909442637045 0.13569034206834288 -0.254409980918495 -0.5394930608411955 0.33462809239098407 0.26811237670518206
 0.4598909442636927 0.13569034206833258 0.4598909442637854 0.1356903420683926 0.33462809239098396 0.268112376705182 -0.25440998091830447 -0.5394930608411296
194000000.0 -0.26888455931472227 -0.5283898216181935 0.34872302740875677 0.25759674458735576 0.4600807659528537 0.1353965385156911 0.4600807659529241 0.13539653851574898
 0.3487230274087567 0.25759674458735576 -0.26888455931449307 -0.5283898216181252 0.4600807659529357 0.13539653851575917 0.4600807659530168 0.13539653851580896
 0.46008076595285363 0.13539653851569125 0.4600807659529358 0.13539653851575928 -0.25544062714062765 -0.5385850281259932 0.3352790952346547 0.2677919510951489
 0.46008076595292363 0.13539653851574893 0.46008076595301645 0.135396538515809 0.33527909523465443 0.2677919510951488 -0.2554406271404372 -0.5385850281259272
194500000.0 -0.26986739363352324 -0.5274720875477497 0.34932883147170724 0.2572643639849261 0.4602692810807787 0.1351038617816851 0.4602692810808493 0.13510386178174294
 0.3493288314717071 0.25726436398492597 -0.26986739363329415 -0.5274720875476815 0.4602692810808608 0.1351038617817531 0.46026928108094206 0.1351038617818027
 0.4602692810807785 0.13510386178168496 0.4602692810808608 0.13510386178175285 -0.2564652535138817 -0.5376788962747162 0.3359266913520578 0.2674711727118856
 0.46026928108084897 0.13510386178174288 0.4602692810809418 0.13510386178180278 0.3359266913520577 0.26747117271188564 -0.2564652535136906 -0.5376788962746502
195000000.0 -0.27084437621851676 -0.526556476915591 0.3499313737381188 0.2569318637285619 0.4604565012400696 0.13481230659378898 0.46045650124014026 0.13481230659384658
 0.34993137373811856 0.25693186372856175 -0.27084437621828744 -0.5265564769155232 0.46045650124015197 0.13481230659385676 0.46045650124023335 0.1348123065939062
 0.46045650124006926 0.13481230659378896 0.4604565012401519 0.1348123065938568 -0.25748390292136236 -0.5367746698428102 0.3365709004409566 0.2671500566557744
 0.46045650124013987 0.1348123065938466 0.46045650124023296 0.13481230659390633 0.33657090044095644 0.26715005665577435 -0.25748390292117146 -0.5367746698427446
195500000.0 -0.2718155499057633 -0.5256429919059545 0.3505306741062512 0.25659925651186477 0.4606424378996264 0.1345218676973202 0.46064243789969705 0.1345218676973778
 0.35053067410625127 0.2565992565118647 -0.2718155499055338 -0.5256429919058867 0.46064243789970877 0.134521867697388 0.4606424378997902 0.13452186769743746
 0.46064243789962617 0.13452186769732033 0.4606424378997088 0.134521867697388 -0.2584966179073582 -0.5358723531948157 0.3372117421078388 0.26682861780071954
 0.4606424378996969 0.13452186769737767 0.46064243789978987 0.1345218676974374 0.3372117421078386 0.2668286178007193 -0.2584966179071675 -0.5358723531947504
196000000.0 -0.2727809571788247 -0.5247316345344555 0.3511267523663784 0.25626655482381494 0.46082710240609315 0.13423253985559652 0.4608271024061642 0.13423253985565428
 0.3511267523663783 0.2562665548238149 -0.2727809571785949 -0.5247316345343878 0.46082710240617575 0.13423253985566444 0.46082710240625746 0.13423253985571384
 0.4608271024060929 0.13423253985559663 0.4608271024061759 0.13423253985566447 -0.2595034406799796 -0.5349719505078052 0.3378492358675255 0.2665068707971583
 0.46082710240616404 0.13423253985565423 0.46082710240625735 0.13423253985571387 0.3378492358675254 0.26650687079715807 -0.25950344067978826 -0.5349719505077398
196500000.0 -0.2737406401717147 -0.5238224066513645 0.3517196282007457 0.2559337709516367 0.4610105059853546 0.1339443178501414 0.46101050598542564 0.13394431785019892
 0.3517196282007458 0.2559337709516366 -0.27374064017148503 -0.523822406651297 0.4610105059854373 0.13394431785020894 0.46101050598551896 0.13394431785025826
 0.46101050598535437 0.13394431785014135 0.46101050598543725 0.13394431785020897 -0.2605044131137834 -0.5340734657747684 0.3384834011428066 0.2661848300750339
 0.46101050598542526 0.13394431785019892 0.4610105059855187 0.13394431785025848 0.33848340114280656 0.26618483007503396 -0.2605044131135921 -0.534073465774703
197000000.0 -0.2746946406718305 -0.5229153099448305 0.3523093211835516 0.255600916983628 0.4611926597440094 0.13365719648087956 0.46119265974408047 0.1336571964809369
 0.35230932118355146 0.2556009169836279 -0.2746946406716007 -0.5229153099447631 0.4611926597440923 0.13365719648094718 0.4611926597441739 0.13365719648099636
 0.4611926597440092 0.1336571964808795 0.4611926597440924 0.13365719648094712 -0.2614995767523862 -0.5331769028079425 0.3391142572640998 0.26586250984673343
 0.46119265974408 0.1336571964809368 0.46119265974417367 0.13365719648099636 0.3391142572640995 0.2658625098467333 -0.26149957675219526 -0.5331769028078772
197500000.0 -0.2756430001228611 -0.5220103459440459 0.3528958507809458 0.25526800481195155 0.46137357467082724 0.1333711705663264 0.4613735746708986 0.1333711705663839
 0.3528958507809458 0.25526800481195155 -0.2756430001226308 -0.5220103459439783 0.46137357467091045 0.1333711705663941 0.46137357467099244 0.13337117056644324
 0.4613735746708271 0.13337117056632647 0.46137357467091045 0.13337117056639408 -0.2624889728110589 -0.5322822652420877 0.3397418234691361 0.2655399241099869
 0.46137357467089835 0.13337117056638376 0.46137357467099216 0.13337117056644315 0.33974182346913595 0.2655399241099867 -0.2624889728108676 -0.5322822652420228
198000000.0 -0.2765857596276794 -0.5211075160223608 0.3534792363510495 0.2549350461353883 0.46155326163818455 0.13308623494376662 0.46155326163825605 0.1330862349438239
 0.35347923635104933 0.2549350461353882 -0.2765857596274494 -0.5211075160222937 0.46155326163826765 0.1330862349438341 0.4615532616383497 0.1330862349438831
 0.46155326163818433 0.13308623494376656 0.4615532616382678 0.13308623494383404 -0.2634726421793074 -0.5313895565377119 0.34036611890267 0.2652170866507328
 0.4615532616382556 0.13308623494382374 0.46155326163834953 0.13308623494388302 0.3403661189026697 0.2652170866507326 -0.26347264217911587 -0.531389556537647
198500000.0 -0.27752295995121246 -0.5202068214003429 0.35405949714399176 0.25460205246205636 0.4617317314034798 0.13280238446942436 0.4617317314035515 0.13280238446948153
 0.35405949714399165 0.2546020524620564 -0.2775229599509825 -0.5202068214002759 0.46173173140356316 0.13280238446949175 0.4617317314036453 0.1328023844695408
 0.4617317314034797 0.13280238446942438 0.4617317314035633 0.13280238446949166 -0.2644506254234407 -0.5304987799842398 0.34098716261621237 0.2648940110459466
 0.4617317314035511 0.1328023844694815 0.46173173140364493 0.13280238446954074 0.34098716261621204 0.2648940110459464 -0.26445062542324926 -0.5304987799841749
199000000.0 -0.2784546415232912 -0.5193082631487851 0.35463665230196495 0.2542690351120932 0.4619089946105322 0.1325196140186283 0.461908994610604 0.1325196140186856
 0.35463665230196484 0.2542690351120931 -0.278454641523061 -0.519308263148718 0.46190899461061585 0.13251961401869558 0.46190899461069806 0.1325196140187446
 0.4619089946105319 0.1325196140186283 0.46190899461061585 0.13251961401869553 -0.2654229627891212 -0.529609938703134 0.34160497356778713 0.2645707106664356
 0.4619089946106037 0.13251961401868528 0.4619089946106978 0.13251961401874446 0.3416049735677872 0.26457071066643545 -0.2654229627889296 -0.5296099387030695
199500000.0 -0.27938084444148087 -0.5184118421916625 0.35521072085929845 0.2539360052203002 0.4620850617909601 0.13223791848596428 0.4620850617910321 0.13223791848602146
 0.3552107208592984 0.25393600522030013 -0.2793808444412506 -0.5184118421915959 0.46208506179104397 0.13223791848603159 0.4620850617911262 0.1322379184860804
 0.4620850617909599 0.13223791848596428 0.46208506179104386 0.13223791848603145 -0.2663896942039009 -0.5287230356509651 0.342219570621711 0.26424719867959623
 0.4620850617910318 0.1322379184860213 0.462085061791126 0.1322379184860804 0.34221957062171093 0.2642471986795961 -0.2663896942037092 -0.5287230356509007
200000000.0 -0.2803016084738907 -0.5175175593090392 0.35578172174254685 0.25360297373875657 0.46225994336554066 0.13195729278542553 0.4622599433656127 0.1319572927854826
 0.3557817217425468 0.2536029737387565 -0.2803016084736605 -0.5175175593089726 0.4622599433656247 0.1319572927854926 0.462259943365707 0.13195729278554144
 0.46225994336554055 0.13195729278542548 0.4622599433656247 0.13195729278549254 -0.26735085927974345 -0.5278380736224298 0.34283097254839195 0.2639234880521407
 0.4622599433656125 0.1319572927854825 0.4622599433657069 0.1319572927855414 0.34283097254839195 0.2639234880521406 -0.26735085927955154 -0.5278380736223655
