! Created with skrf 2.0.1 (http://scikit-rf.org).
# Hz S RI R 50.0 
!freq ReS11 ImS11 ReS12 ImS12 ReS13 ImS13
! ReS14 ImS14
! ReS21 ImS21 ReS22 ImS22 ReS23 ImS23
! ReS24 ImS24
! ReS31 ImS31 ReS32 ImS32 ReS33 ImS33
! ReS34 ImS34
! ReS41 ImS41 ReS42 ImS42 ReS43 ImS43
! ReS44 ImS44
!
500000.0 0.9999043055170952 -0.011616651282118577 -1.4707300534520076e-05 0.0011100060094522794 5.520089171971637e-05 0.0052533226363334065 5.520089171971331e-05 0.005253322636333611
 -1.4707300534520076e-05 0.0011100060094522794 0.9999043055170951 -0.011616651282115975 5.520089171971154e-05 0.005253322636333588 5.5200891719711146e-05 0.005253322636334005
 5.5200891719716344e-05 0.005253322636333405 5.5200891719711567e-05 0.005253322636333589 0.9999075964842592 -0.011352604560110563 -1.7998267698768087e-05 0.0008459592874442591
 5.520089171971329e-05 0.005253322636333609 5.52008917197111e-05 0.005253322636334002 -1.799826769876808e-05 0.0008459592874442586 0.9999075964842595 -0.01135260456010856
1000000.0 0.9996173148498706 -0.023228278002893916 -5.877576940989225e-05 0.0022219448674863384 0.0002207304597696116 0.010503166567704305 0.00022073045976959927 0.010503166567704711
 -5.877576940989223e-05 0.002221944867486339 0.999617314849871 -0.023228278002888722 0.00022073045976959236 0.010503166567704671 0.00022073045976959068 0.010503166567705502
 0.00022073045976961147 0.010503166567704302 0.0002207304597695924 0.010503166567704673 0.9996304756507159 -0.022700369111437593 -7.193657025520307e-05 0.0016940359760300003
 0.00022073045976959922 0.010503166567704707 0.0002207304597695905 0.010503166567705495 -7.193657025520307e-05 0.0016940359760299992 0.9996304756507159 -0.022700369111433586
1500000.0 0.9991393060769838 -0.034829864526849434 -0.0001320453264696915 0.0033377429998974854 0.0004963696247429132 0.015746060763476753 0.0004963696247428855 0.015746060763477367
 -0.0001320453264696913 0.003337742999897485 0.9991393060769842 -0.03482986452684165 0.0004963696247428699 0.0157460607634773 0.0004963696247428664 0.015746060763478554
 0.0004963696247429128 0.015746060763476743 0.0004963696247428704 0.015746060763477312 0.9991689063799564 -0.034038462332104245 -0.00016164562944196237 0.002546340805152262
 0.0004963696247428853 0.01574606076347736 0.000496369624742866 0.015746060763478543 -0.0001616456294419623 0.0025463408051522606 0.9991689063799564 -0.034038462332098236
2000000.0 0.9984707417783645 -0.04641641303258858 -0.00023424989677461606 0.004459314020306901 0.0008817540592050938 0.02097854950614187 0.0008817540592050451 0.020978549506142693
 -0.00023424989677461595 0.004459314020306901 0.9984707417783647 -0.04641641303257819 0.0008817540592050171 0.0209785495061426 0.0008817540592050108 0.020978549506144275
 0.0008817540592050933 0.020978549506141857 0.0008817540592050174 0.020978549506142606 0.9985233359396561 -0.04536207023693967 -0.0002868440580664014 0.0034049712246579694
 0.0008817540592050447 0.02097854950614268 0.0008817540592050101 0.02097854950614426 -0.00028684405806640137 0.0034049712246579673 0.9985233359396567 -0.04536207023693167
2500000.0 0.9976122677138668 -0.05798295232598935 -0.00036501849356250277 0.005588552407296179 0.0013763753898475976 0.02619719995934788 0.0013763753898475219 0.026197199959348907
 -0.00036501849356250244 0.005588552407296178 0.9976122677138675 -0.057982952325976375 0.0013763753898474779 0.026197199959348796 0.0013763753898474677 0.02619719995935088
 0.0013763753898475971 0.026197199959347866 0.0013763753898474785 0.026197199959348806 0.9976943886899783 -0.05666640475334963 -0.0004471394696734506 0.0042720048346564015
 0.0013763753898475208 0.026197199959348886 0.0013763753898474672 0.02619719995935087 -0.00044713946967345057 0.004272004834656399 0.9976943886899786 -0.056666404753339644
3000000.0 0.9965647109841339 -0.06952454654158706 -0.0005238767244005014 0.0067273272806398846 0.00197958287013328 0.031398609630475145 0.00197958287013317 0.03139860963047638
 -0.000523876724400501 0.0067273272806398846 0.9965647109841348 -0.06952454654157152 0.0019795828701331076 0.03139860963047625 0.0019795828701330933 0.03139860963047876
 0.0019795828701332776 0.03139860963047511 0.0019795828701331085 0.031398609630476255 0.9966828642817624 -0.06794671218700495 -0.0006420300220292072 0.005149492926057716
 0.0019795828701331688 0.03139860963047636 0.0019795828701330916 0.03139860963047873 -0.0006420300220292069 0.005149492926057713 0.996682864281763 -0.06794671218699296
3500000.0 0.9953290776842849 -0.08103630369620152 -0.0007102487106589302 0.007877476308399098 0.0026905855131868 0.03657941369390301 0.0026905855131866513 0.03657941369390446
 -0.0007102487106589296 0.007877476308399098 0.9953290776842864 -0.0810363036961834 0.0026905855131865667 0.036579413693904314 0.0026905855131865476 0.03657941369390724
 0.002690585513186798 0.03657941369390298 0.0026905855131865676 0.03657941369390433 0.9954897353580328 -0.07919828154193916 -0.00087090638440674 0.006039454154136684
 0.0026905855131866504 0.036579413693904446 0.0026905855131865463 0.03657941369390723 -0.0008709063844067399 0.006039454154136681 0.9954897353580338 -0.0791982815419252
4000000.0 0.9939065500639286 -0.09251338405998315 -0.0009234594077875858 0.009040799775570539 0.0035084546719293106 0.041736292142208364 0.003508454671929118 0.04173629214221003
 -0.0009234594077875849 0.009040799775570539 0.9939065500639302 -0.09251338405996247 0.003508454671929007 0.04173629214220986 0.0035084546719289836 0.04173629214221322
 0.003508454671929309 0.04173629214220835 0.003508454671929009 0.04173629214220988 0.994116144772158 -0.0904164526607554 -0.0011330541160168113 0.0069438683763427345
 0.003508454671929116 0.04173629214221001 0.00350845467192898 0.04173629214221319 -0.0011330541160168106 0.00694386837634273 0.994116144772159 -0.09041645266073947
4500000.0 0.9922984832096919 -0.10395100831142348 -0.0011627373113516294 0.010219054843674951 0.004432127050829686 0.046865976733876595 0.004432127050829441 0.046865976733878455
 -0.0011627373113516288 0.01021905484367495 0.992298483209694 -0.10395100831140028 0.004432127050829303 0.04686597673387829 0.004432127050829272 0.046865976733882056
 0.004432127050829682 0.04686597673387655 0.004432127050829304 0.046865976733878295 0.9925634023387133 -0.10159662415200542 -0.001427656440373102 0.007864670684256805
 0.004432127050829439 0.046865976733878434 0.00443212705082927 0.04686597673388203 -0.0014276564403731024 0.007864670684256801 0.9925634023387149 -0.1015966241519875
5000000.0 0.9905064012690714 -0.11534446544448596 -0.0014272175314097232 0.011413950029130855 0.005460408131168804 0.051965257707680124 0.005460408131168504 0.051965257707682226
 -0.001427217531409722 0.011413950029130855 0.9905064012690741 -0.11534446544446021 0.005460408131168334 0.05196525770768203 0.005460408131168296 0.051965257707686216
 0.0054604081311688014 0.0519652577076801 0.005460408131168336 0.051965257707682046 0.9908329811356406 -0.1127342610734018 -0.0017537973979783704 0.008803745658046576
 0.0054604081311685005 0.05196525770768219 0.005460408131168293 0.0519652577076862 -0.0017537973979783695 0.008803745658046572 0.9908329811356421 -0.1127342610733819
5500000.0 0.9885319932367908 -0.12668912039784272 -0.0017159452156136979 0.012627139926513696 0.00659197598941117 0.05703099023566732 0.006591975989410809 0.05703099023566965
 -0.0017159452156136977 0.012627139926513696 0.9885319932367937 -0.1266891203978144 0.006591975989410604 0.05703099023566944 0.006591975989410561 0.057030990235674074
 0.006591975989411165 0.05703099023566728 0.006591975989410605 0.05703099023566944 0.9889265133786637 -0.12382490234134139 -0.002110465357486679 0.009762921870012271
 0.006591975989410808 0.05703099023566963 0.006591975989410557 0.05703099023567404 -0.0021104653574866785 0.009762921870012268 0.9889265133786662 -0.12382490234131958
6000000.0 0.9863771083270565 -0.13798042137823135 -0.002027879299396377 0.01386022020086635 0.007825385486169449 0.0620601005886856 0.007825385486169026 0.06206010058868817
 -0.0020278792993963747 0.013860220200866349 0.9863771083270605 -0.13798042137820066 0.00782538548616878 0.06206010058868793 0.007825385486168734 0.06206010058869301
 0.007825385486169442 0.06206010058868555 0.007825385486168785 0.062060100588687966 0.9868457858911177 -0.13486416783923164 -0.0024965568634572736 0.010743966661866467
 0.00782538548616902 0.06206010058868812 0.007825385486168727 0.06206010058869295 -0.002496556863457272 0.010743966661866458 0.9868457858911203 -0.1348641678392079
6500000.0 0.9840437509571093 -0.14921390685215094 -0.0023618965598089466 0.015114722871127775 0.009159072801349404 0.0670495919905149 0.00915907280134891 0.0670495919905177
 -0.0023618965598089458 0.015114722871127776 0.9840437509571136 -0.14921390685211772 0.009159072801348625 0.06704959199051747 0.009159072801348572 0.06704959199052296
 0.009159072801349404 0.0670495919905149 0.009159072801348627 0.06704959199051748 0.984592735194285 -0.1458477651992987 -0.0029108807969846088 0.011748581218275453
 0.009159072801348905 0.06704959199051766 0.009159072801348566 0.06704959199052292 -0.0029108807969846066 0.011748581218275447 0.9845927351942881 -0.14584776519927306
7000000.0 0.9815340753692051 -0.16038521218246996 -0.0027167959479857586 0.016392111904505697 0.010591360289389751 0.07199655013898575 0.010591360289389175 0.07199655013898873
 -0.0027167959479857547 0.0163921119045057 0.9815340753692106 -0.16038521218243432 0.01059136028938885 0.07199655013898852 0.010591360289388788 0.07199655013899442
 0.010591360289389744 0.07199655013898569 0.010591360289388854 0.07199655013898852 0.9821694422451005 -0.15677149623489547 -0.0033521628238808404 0.01277839595693105
 0.010591360289389172 0.0719965501389887 0.010591360289388781 0.07199655013899439 -0.0033521628238808413 0.012778395956931048 0.982169442245104 -0.15677149623486789
7500000.0 0.9788503799197125 -0.17149007588900503 -0.0030913031738634277 0.017693779139262355 0.012120461627074803 0.07689814837487519 0.012120461627074152 0.07689814837487846
 -0.0030913031738634238 0.017693779139262362 0.9788503799197187 -0.17149007588896695 0.012120461627073776 0.0768981483748782 0.01212046162707371 0.07689814837488457
 0.012120461627074794 0.07689814837487514 0.012120461627073779 0.07689814837487821 0.9795781268495619 -0.16763126300278808 -0.0038190501037127524 0.01383496625304526
 0.012120461627074145 0.0768981483748784 0.012120461627073705 0.07689814837488453 -0.0038190501037127515 0.013834966253045254 0.9795781268495662 -0.16763126300275868
8000000.0 0.9759951010652578 -0.1825243455147042 -0.0034840755156709613 0.019021040550935217 0.013744487225205954 0.08175165248188859 0.013744487225205214 0.08175165248189208
 -0.0034840755156709596 0.019021040550935217 0.9759951010652647 -0.1825243455146637 0.013744487225204799 0.08175165248189185 0.013744487225204724 0.08175165248189864
 0.013744487225205946 0.08175165248188854 0.0137444872252048 0.08175165248189187 0.9768211417814495 -0.17842307347746142 -0.0043101162318628 0.014919768513692304
 0.01374448722520521 0.08175165248189205 0.013744487225204714 0.0817516524818986 -0.004310116231862802 0.014919768513692297 0.9768211417814544 -0.17842307347743008
8500000.0 0.9729708070768891 -0.19348398308172632 -0.0038937068258429607 0.020375132874503377 0.01546144987447597 0.08655442510361587 0.015461449874475145 0.08655442510361962
 -0.003893706825842957 0.020375132874503373 0.972970807076897 -0.1934839830816835 0.015461449874474679 0.08655442510361942 0.0154614498744746 0.08655442510362664
 0.01546144987447596 0.08655442510361583 0.015461449874474682 0.08655442510361942 0.9739009666369457 -0.1891430468221128 -0.004823866385898858 0.01603419661488957
 0.015461449874475139 0.08655442510361958 0.015461449874474594 0.08655442510362658 -0.004823866385898859 0.016034196614889563 0.973900966636951 -0.18914304682207964
9000000.0 0.9697801915139888 -0.2043650701244052 -0.004318732704390846 0.02175721059246217 0.017269270595200212 0.09130392976597614 0.017269270595199296 0.09130392976598012
 -0.004318732704390845 0.021757210592462172 0.9697801915139969 -0.20436507012435995 0.01726927059519877 0.0913039297659799 0.017269270595198692 0.09130392976598758
 0.0172692705952002 0.09130392976597608 0.017269270595198775 0.09130392976597991 0.9708202014564987 -0.1997874182436805 -0.005358742646900991 0.017179558711737288
 0.017269270595199292 0.09130392976598012 0.017269270595198685 0.09130392976598753 -0.005358742646900992 0.017179558711737278 0.970820201456505 -0.19978741824364554
9500000.0 0.9664260664901545 -0.21516381228880133 -0.004757635810396411 0.02316834329620816 0.019165784660119964 0.09599773449630143 0.01916578466011896 0.09599773449630572
 -0.0047576358103964085 0.023168343296208153 0.966426066490164 -0.21516381228875378 0.019165784660118382 0.0959977344963055 0.0191657846601183 0.09599773449631362
 0.019165784660119953 0.09599773449630139 0.019165784660118385 0.09599773449630551 0.9675815601457636 -0.21035254342194598 -0.005913129466005446 0.018357074429352634
 0.019165784660118944 0.09599773449630562 0.019165784660118288 0.09599773449631356 -0.005913129466005443 0.018357074429352627 0.9675815601457703 -0.2103525434219092
10000000.0 0.962911355763558 -0.2258765434912597 -0.0052088512821635525 0.024609513425590458 0.02114874775930161 0.10063351503283971 0.021148747759300514 0.1006335150328443
 -0.005208851282163549 0.024609513425590458 0.9629113557635685 -0.22587654349120978 0.02114874775929986 0.10063351503284403 0.02114874775929979 0.10063351503285264
 0.021148747759301603 0.1006335150328397 0.021148747759299872 0.10063351503284408 0.9641878637276766 -0.22083490250543203 -0.006485359246281861 0.01956787243976259
 0.0211487477593005 0.10063351503284422 0.02114874775929978 0.10063351503285259 -0.006485359246281855 0.019567872439762577 0.9641878637276841 -0.2208349025053935
10500000.0 0.9592390876842601 -0.23649972963106433 -0.005670772236671604 0.026081614388976354 0.02321584227620459 0.10520905762104932 0.02321584227620339 0.10520905762105415
 -0.0056707722366716 0.026081614388976354 0.959239087684271 -0.23649972963101204 0.023215842276202672 0.1052090576210539 0.023215842276202592 0.10520905762106293
 0.02321584227620458 0.10520905762104929 0.023215842276202686 0.10520905762105394 0.9606420334577416 -0.2312311036694738 -0.007073718010153026 0.020812988427385673
 0.023215842276203377 0.1052090576210541 0.023215842276202582 0.10520905762106288 -0.007073718010153023 0.020812988427385663 0.9606420334577499 -0.23123110366943347
11000000.0 0.9554123880307602 -0.24702997185490547 -0.006141755319307642 0.02758544906373118 0.025364683644272322 0.10972226139559278 0.025364683644271014 0.10972226139559789
 -0.0061417553193076355 0.02758544906373118 0.9554123880307727 -0.24702997185485112 0.02536468364427025 0.10972226139559764 0.025364683644270185 0.1097222613956072
 0.025364683644272305 0.10972226139559271 0.025364683644270254 0.10972226139559767 0.9569470838343409 -0.24153788623443365 -0.007676451122888074 0.022093363443259073
 0.025364683644271 0.1097222613955978 0.025364683644270164 0.10972226139560712 -0.007676451122888074 0.022093363443259056 0.9569470838343499 -0.2415378862343915
11500000.0 0.951434472767598 -0.25746400937341996 -0.006620126275404037 0.02912172867464744 0.02759282675390145 0.11417114034939217 0.027592826753900027 0.11417114034939754
 -0.006620126275404031 0.029121728674647438 0.9514344727676117 -0.2574640093733634 0.027592826753899204 0.11417114034939735 0.02759282675389914 0.11417114034940733
 0.027592826753901428 0.11417114034939208 0.027592826753899215 0.11417114034939739 0.9531061155354328 -0.2517521233445476 -0.008291769043238244 0.0234098426457747
 0.027592826753900016 0.11417114034939747 0.027592826753899114 0.11417114034940723 -0.008291769043238244 0.023409842645774687 0.9531061155354424 -0.2517521233445037
12000000.0 0.9473086407551478 -0.2677987218325101 -0.0071041855158584894 0.030691072045594247 0.029897772380353637 0.11855382489346405 0.02989777238035212 0.11855382489346976
 -0.007104185515858479 0.030691072045594247 0.9473086407551629 -0.2677987218324514 0.02989777238035123 0.11855382489346954 0.029897772380351174 0.11855382489348001
 0.02989777238035361 0.11855382489346397 0.029897772380351243 0.11855382489346962 0.949122308312316 -0.2618708242103134 -0.008917853073026321 0.02476317442339722
 0.029897772380352104 0.11855382489346965 0.02989777238035115 0.11855382489347996 -0.008917853073026314 0.024763174423397205 0.9491223083123268 -0.2618708242102678
12500000.0 0.9430382664418986 -0.27803113124447926 -0.007592213650050579 0.032294005217513105 0.03227697360407425 0.12286856301348946 0.032276973604072626 0.12286856301349545
 -0.00759221365005057 0.032294005217513105 0.9430382664419141 -0.2780311312444183 0.03227697360407166 0.12286856301349527 0.032276973604071606 0.12286856301350615
 0.03227697360407423 0.12286856301348939 0.032276973604071675 0.1228685630134953 0.9449989138702786 -0.27189113591963016 -0.009552861078430584 0.026154009892663678
 0.032276973604072605 0.12286856301349534 0.032276973604071585 0.12286856301350609 -0.009552861078430584 0.026154009892663664 0.9449989138702901 -0.27189113591958297
13000000.0 0.9386267925684557 -0.288158403486222 -0.008082476960375999 0.033930961423875645 0.03472784219595821 0.12711372103117982 0.034727842195956475 0.12711372103118607
 -0.00808247696037599 0.033930961423875645 0.9386267925684728 -0.28815840348615895 0.034727842195955455 0.12711372103118596 0.03472784219595543 0.12711372103119736
 0.034727842195958196 0.12711372103117977 0.03472784219595546 0.127113721031186 0.940739248764886 -0.2818103448250735 -0.010194933156805948 0.0275829027627268
 0.034727842195956454 0.127113721031186 0.0347278421959554 0.12711372103119728 -0.010194933156805943 0.027582902762726784 0.9407392487648982 -0.2818103448250246
13500000.0 0.9340777229113013 -0.2981778493737563 -0.008573232793978187 0.035602281412855305 0.03724775494133632 0.13128778398045746 0.03724775494133448 0.131287783980464
 -0.008573232793978173 0.0356022814128553 0.9340777229113196 -0.29817784937369135 0.03724775494133339 0.1312877839804639 0.037247754941333366 0.13128778398047578
 0.03724775494133629 0.13128778398045732 0.0372477549413334 0.13128778398046395 0.9363466873414633 -0.2916258775167131 -0.010842197224139608 0.029050309555811688
 0.03724775494133445 0.1312877839804639 0.03724775494133335 0.1312877839804757 -0.010842197224139611 0.029050309555811674 0.9363466873414765 -0.29162587751666263
14000000.0 0.9293946150929896 -0.308086925324288 -0.009062734848649579 0.03730821410375974 0.03983405987782771 0.13538935561027124 0.03983405987782574 0.13538935561027812
 -0.00906273484864957 0.037308214103759736 0.9293946150930091 -0.3080869253242208 0.03983405987782459 0.13538935561027807 0.03983405987782458 0.13538935561029042
 0.03983405987782768 0.13538935561027113 0.0398340598778246 0.13538935561027812 0.93182465474397 -0.30133530139175213 -0.011492774499629687 0.03055659017122349
 0.039834059877825734 0.13538935561027807 0.03983405987782456 0.13538935561029034 -0.01149277449962969 0.030556590171223478 0.9318246547439841 -0.30133530139169995
14500000.0 0.9245810734839847 -0.31788323361872123 -0.009549238331380832 0.03904891756373156 0.042484082423695675 0.13941715802750224 0.04248408242369361 0.13941715802750945
 -0.00954923833138082 0.03904891756373155 0.9245810734840056 -0.3178832336186521 0.04248408242369239 0.13941715802750948 0.04248408242369241 0.13941715802752228
 0.04248408242369565 0.13941715802750212 0.04248408242369241 0.13941715802750954 0.9271766200179852 -0.31093632483396627 -0.012144784865380787 0.032102008778976114
 0.04248408242369357 0.13941715802750934 0.042484082423692365 0.13941715802752216 -0.01214478486538078 0.0321020087789761 0.9271766200179999 -0.3109363248339124
15000000.0 0.9196407422197602 -0.32756452227909255 -0.010031004969637427 0.04082446028935805 0.045195131374935964 0.1433700309948749 0.045195131374933806 0.14337003099488246
 -0.01003100496963742 0.04082446028935806 0.9196407422197826 -0.3275645222790215 0.04519513137493249 0.14337003099488246 0.045195131374932564 0.14337003099489584
 0.04519513137493594 0.1433700309948748 0.0451951313749325 0.1433700309948825 0.9224060893309365 -0.3204267970174532 -0.012796352080813414 0.033686735027718295
 0.045195131374933785 0.1433700309948824 0.045195131374932536 0.14337003099489576 -0.012796352080813412 0.03368673502771827 0.922406089330953 -0.320426797017398
15500000.0 0.9145772983551147 -0.3371286845767816 -0.010506307857119783 0.04263482277664129 0.0479645047509997 0.14724693090007807 0.04796450475099742 0.147246930900086
 -0.010506307857119769 0.04263482277664128 0.9145772983551382 -0.3371286845767086 0.04796450475099605 0.14724693090008603 0.04796450475099613 0.14724693090009985
 0.04796450475099967 0.14724693090007795 0.047964504750996055 0.14724693090008606 0.9175165993310594 -0.32980470735055756 -0.013445608833064015 0.03531084555041669
 0.04796450475099739 0.1472469309000859 0.0479645047509961 0.14724693090009977 -0.013445608833064006 0.03531084555041668 0.9175165993310768 -0.32980470735050077
16000000.0 0.9093944451759163 -0.3465737581885547 -0.010973436117495019 0.04447989936176596 0.05078949547078635 0.1510469294134025 0.05078949547078396 0.15104692941341077
 -0.010973436117495013 0.044479899361765954 0.9093944451759411 -0.34657375818847974 0.050789495470782514 0.15104692941341089 0.05078949547078263 0.1510469294134252
 0.050789495470786324 0.15104692941340242 0.05078949547078253 0.1510469294134109 0.912511710664811 -0.33906818457700544 -0.01409070160638905 0.036974325750216176
 0.05078949547078392 0.15104692941341064 0.0507894954707826 0.1510469294134251 -0.014090701606389045 0.036974325750216155 0.912511710664829 -0.3390681845769471
16500000.0 0.9040959056867128 -0.35589792401851733 -0.011430699371359127 0.046359500314269476 0.05366739684231991 0.15476921185213235 0.05366739684231739 0.15476921185214093
 -0.011430699371359127 0.046359500314269476 0.9040959056867393 -0.35589792401844056 0.05366739684231588 0.1547692118521411 0.053667396842316036 0.15476921185215592
 0.05366739684231987 0.15476921185213227 0.0536673968423159 0.15476921185214115 0.9073950016707178 -0.3482154955522858 -0.014729795355363576 0.03867707184803741
 0.053667396842317375 0.15476921185214088 0.053667396842315994 0.15476921185215578 -0.014729795355363572 0.038677071848037384 0.907395001670737 -0.348215495552226
17000000.0 0.8986854162908279 -0.3650995047048937 -0.011876431993477493 0.04827335416355768 0.05659550785132136 0.15841307527067672 0.05659550785131874 0.15841307527068568
 -0.01187643199347748 0.04827335416355767 0.8986854162908559 -0.36509950470481517 0.05659550785131716 0.15841307527068588 0.056595507851317346 0.15841307527070117
 0.056595507851321315 0.1584130752706766 0.05659550785131718 0.15841307527068593 0.9021700622658129 -0.3572450437141242 -0.015361077968461857 0.04041889317278746
 0.05659550785131872 0.1584130752706856 0.05659550785131732 0.15841307527070111 -0.015361077968461857 0.040418893172787435 0.9021700622658331 -0.3572450437140629
17500000.0 0.8931667206777356 -0.37417696283121965 -0.012308997149143972 0.05022111023922288 0.059571138235700524 0.1619779262960073 0.05957113823569779 0.1619779262960166
 -0.012308997149143956 0.05022111023922286 0.893166720677765 -0.37417696283113927 0.059571138235696146 0.1619779262960169 0.05957113823569637 0.16197792629603264
 0.059571138235700476 0.16197792629600719 0.05957113823569616 0.1619779262960169 0.8968404880390011 -0.3661553672665441 -0.015982764510408917 0.04219951467454666
 0.05957113823569776 0.1619779262960165 0.059571138235696354 0.1619779262960326 -0.015982764510408917 0.04219951467454664 0.8968404880390226 -0.3661553672664814
18000000.0 0.8875435639306919 -0.38312889886203105 -0.012726790600277494 0.05220234140529746 0.06259161333478887 0.16546327872837596 0.06259161333478604 0.16546327872838568
 -0.01272679060027749 0.052202341405297455 0.8875435639307228 -0.38312889886194895 0.06259161333478433 0.165463278728386 0.06259161333478463 0.16546327872840233
 0.06259161333478883 0.16546327872837585 0.06259161333478436 0.16546327872838604 0.891409874563896 -0.37494513709748334 -0.016593101233481122 0.04401857964074917
 0.06259161333478601 0.16546327872838557 0.06259161333478458 0.1654632787284022 -0.01659310123348112 0.044018579640749136 0.8914098745639182 -0.3749451370974193
18500000.0 0.8818196868657927 -0.39195404882346946 -0.013128244273625363 0.05421654696841335 0.06565427870391215 0.16886875092753745 0.06565427870390922 0.16886875092754758
 -0.013128244273625345 0.05421654696841333 0.8818196868658252 -0.39195404882338564 0.06565427870390744 0.16886875092754794 0.06565427870390776 0.16886875092756476
 0.0656542787039121 0.16886875092753736 0.06565427870390746 0.168868750927548 0.885881811941864 -0.3836131544502457 -0.01719036934969603 0.04587565259518886
 0.0656542787039092 0.1688687509275475 0.06565427870390773 0.16886875092756468 -0.01719036934969602 0.04587565259518885 0.8858818119418876 -0.3836131544501801
19000000.0 0.8759988206118651 -0.400651281749397 -0.013511829585150901 0.05626315573982359 0.0687565044866386 0.1721940630047964 0.06875650448663556 0.17219406300480686
 -0.013511829585150896 0.05626315573982359 0.8759988206118989 -0.4006512817493116 0.06875650448663372 0.17219406300480736 0.06875650448663408 0.17219406300482462
 0.06875650448663854 0.1721940630047963 0.06875650448663373 0.17219406300480736 0.8802598795842681 -0.3921583483692213 -0.017772888557553337 0.0477702223596471
 0.06875650448663552 0.17219406300480677 0.06875650448663405 0.17219406300482448 -0.017772888557553324 0.04777022235964707 0.8802598795842924 -0.39215834836915436
19500000.0 0.8700846814388703 -0.4092195969136561 -0.013876060516338148 0.058341529231371425 0.07189568953872918 0.17543903384115228 0.07189568953872606 0.1754390338411632
 -0.013876060516338131 0.05834152923137142 0.8700846814389062 -0.40921959691356913 0.07189568953872415 0.1754390338411637 0.07189568953872465 0.17543903384118156
 0.07189568953872913 0.1754390338411522 0.07189568953872418 0.17543903384116377 0.8745476412411903 -0.4005797729403326 -0.01833902031865726 0.04970170525804717
 0.07189568953872603 0.17543903384116308 0.07189568953872459 0.17543903384118142 -0.018339020318657254 0.049701705258047124 0.8745476412412161 -0.4005797729402645
20000000.0 0.8640809658408415 -0.4176581208689942 -0.01421949643973537 0.06045096496575001 0.07506926529944202 0.17860357795163231 0.07506926529943884 0.17860357795164358
 -0.014219496439735363 0.06045096496575 0.8640809658408785 -0.41765812086890547 0.07506926529943682 0.17860357795164417 0.07506926529943737 0.1786035779516625
 0.075069265299442 0.17860357795163226 0.07506926529943685 0.17860357795164425 0.8687486402822625 -0.4088766043465247 -0.018887170881155522 0.05166944844327968
 0.0750692652994388 0.1786035779516435 0.07506926529943735 0.17860357795166243 -0.01888717088115551 0.05166944844327964 0.8687486402822893 -0.40887660434645534
20500000.0 0.8579913458777629 -0.4259661043129502 -0.014540744692575786 0.06259069988177689 0.07827469940740137 0.18168770221559716 0.07827469940739806 0.18168770221560882
 -0.014540744692575774 0.06259069988177689 0.8579913458778013 -0.42596610431286 0.078274699407396 0.18168770221560948 0.07827469940739662 0.18168770221562835
 0.07827469940740131 0.18168770221559705 0.07827469940739604 0.18168770221560954 0.8628663952336498 -0.4170481377583796 -0.019415794048462196 0.05367273332720539
 0.07827469940739802 0.18168770221560876 0.07827469940739656 0.18168770221562822 -0.019415794048462193 0.05367273332720535 0.8628663952336778 -0.4170481377583088
21000000.0 0.8518194647792957 -0.43414291880064854 -0.014838462898747176 0.06475991381589526 0.08150949905972031 0.1846915024923874 0.08150949905971695 0.18469150249239955
 -0.014838462898747162 0.06475991381589526 0.8518194647793359 -0.43414291880055694 0.0815094990597148 0.18469150249240024 0.08150949905971552 0.18469150249241958
 0.08150949905972028 0.18469150249238733 0.08150949905971486 0.1846915024924003 0.856904395573731 -0.42509378407956777 -0.019923393693181714 0.05571077909481353
 0.08150949905971691 0.1846915024923994 0.08150949905971548 0.18469150249241947 -0.019923393693181704 0.0557107790948135 0.8569043955737602 -0.42509378407949583
21500000.0 0.8455689328117969 -0.44218805332399475 -0.015111361040727554 0.06695773304170159 0.08477121411445955 0.18761516014115762 0.08477121411445608 0.18761516014117013
 -0.015111361040727533 0.06695773304170156 0.8455689328118389 -0.44218805332390176 0.08477121411445393 0.18761516014117097 0.08477121411445468 0.18761516014119084
 0.0847712141144595 0.1876151601411575 0.08477121411445396 0.18761516014117105 0.8508660977885849 -0.4330130665663799 -0.020408526017514684 0.057782746284085584
 0.08477121411445603 0.18761516014117002 0.08477121411445464 0.18761516014119073 -0.02040852601751468 0.05778274628408556 0.8508660977886151 -0.43301306656630656
22000000.0 0.8392433234087306 -0.450101110776223 -0.015358203284356267 0.0691832338499718 0.08805743993780674 0.19045893846313694 0.08805743993780318 0.1904589384631499
 -0.015358203284356256 0.06918323384997178 0.8392433234087744 -0.45010111077612863 0.08805743993780094 0.1904589384631508 0.08805743993780185 0.19045893846317125
 0.08805743993780668 0.19045893846313683 0.08805743993780098 0.19045893846315085 0.8447549216870716 -0.44080561734002555 -0.0208698015626961 0.059887740413773115
 0.08805743993780316 0.19045893846314982 0.0880574399378018 0.19045893846317116 -0.020869801562696095 0.05988774041377308 0.8447549216871031 -0.4408056173399511
22500000.0 0.8328461695633111 -0.4578818043201169 -0.015577809560464026 0.07143544615240653 0.09136581999857006 0.19322317908386677 0.09136581999856642 0.19322317908388012
 -0.015577809560464024 0.0714354461524065 0.8328461695633564 -0.45788180432002107 0.09136581999856415 0.19322317908388117 0.09136581999856513 0.1932231790839021
 0.09136581999856998 0.19322317908386666 0.09136581999856415 0.19322317908388117 0.8385742469740373 -0.44847117380974444 -0.021305886971189292 0.062024815642033014
 0.09136581999856638 0.19322317908388 0.09136581999856508 0.19322317908390196 -0.021305886971189285 0.06202481564203298 0.83857424697407 -0.448471173809669
23000000.0 0.8263809604810486 -0.4655299536775275 -0.015769056908440517 0.0737133570931269 0.09469404821368937 0.1959082982922121 0.09469404821368575 0.195908298292226
 -0.015769056908440514 0.0737133570931269 0.8263809604810952 -0.4655299536774302 0.09469404821368335 0.19590829829222706 0.0946940482136845 0.1959082982922485
 0.09469404821368933 0.195908298292212 0.09469404821368338 0.1959082982922271 0.8323274100790425 -0.4560095750240655 -0.02171550650643368 0.06419297843966391
 0.09469404821368571 0.1959082982922259 0.09469404821368442 0.1959082982922484 -0.02171550650643366 0.06419297843966387 0.8323274100790765 -0.45600957502398903
23500000.0 0.8198511384887975 -0.4730454813570539 -0.01593088058777138 0.07601591465281596 0.09803987104947992 0.19851478335213116 0.09803987104947616 0.1985147833521454
 -0.015930880587771375 0.07601591465281594 0.8198511384888462 -0.4730454813569555 0.09803987104947375 0.19851478335214662 0.09803987104947497 0.1985147833521686
 0.09803987104947985 0.19851478335213105 0.09803987104947377 0.19851478335214662 0.8260177012369433 -0.4634207579667785 -0.022097443335916078 0.0663911912625393
 0.0980398710494761 0.1985147833521453 0.09803987104947491 0.1985147833521685 -0.02209744333591608 0.06639119126253926 0.8260177012369784 -0.46342075796670074
24000000.0 0.8132600961959445 -0.4804284088359456 -0.0160622749644291 0.07834203123130588 0.10140108938423506 0.20104318880233232 0.10140108938423127 0.20104318880234706
 -0.016062274964429083 0.07834203123130586 0.8132600961959947 -0.4804284088358459 0.10140108938422877 0.20104318880234828 0.10140108938423013 0.20104318880237085
 0.10140108938423496 0.20104318880233216 0.10140108938422882 0.20104318880234834 0.8196483618157253 -0.47070475381337185 -0.02245054058420898 0.06861837620873087
 0.1014010893842312 0.20104318880234695 0.10140108938423002 0.20104318880237065 -0.02245054058420898 0.06861837620873083 0.8196483618157617 -0.47070475381329296
24500000.0 0.8066111739024796 -0.4876788527114352 -0.016162294179753036 0.08069058719534783 0.10477556013862914 0.20349413275805642 0.10477556013862531 0.20349413275807154
 -0.016162294179753033 0.08069058719534782 0.8066111739025311 -0.48767885271133404 0.10477556013862274 0.20349413275807293 0.10477556013862421 0.20349413275809597
 0.10477556013862906 0.20349413275805628 0.10477556013862274 0.20349413275807288 0.813222581886116 -0.4778616841628311 -0.022773702163388268 0.07087341864674253
 0.10477556013862521 0.2034941327580714 0.10477556013862414 0.2034941327580958 -0.022773702163388268 0.07087341864674249 0.8132225818861535 -0.47786168416275127
25000000.0 0.7999076572479441 -0.4947970208358405 -0.01623005261010708 0.08306043437925875 0.1081611976810734 0.2058682932283039 0.10816119768106953 0.20586829322831954
 -0.016230052610107043 0.08306043437925874 0.7999076572479977 -0.49479702083573845 0.10816119768106694 0.20586829322832095 0.10816119768106855 0.20586829322834457
 0.10816119768107335 0.20586829322830383 0.108161197681067 0.20586829322832106 0.8067434980267557 -0.48489175725881123 -0.02306589338891756 0.07315517080222803
 0.10816119768106949 0.20586829322831943 0.10816119768106852 0.20586829322834452 -0.023065893388917555 0.073155170802228 0.8067434980267947 -0.4848917572587305
25500000.0 0.7931527750945403 -0.5017832084488735 -0.01626472512615837 0.08545039952711016 0.11155597501580072 0.20816640446089507 0.11155597501579678 0.20816640446091114
 -0.01626472512615835 0.08545039952711013 0.7931527750945955 -0.5017832084487702 0.11155597501579417 0.2081664044609127 0.11155597501579588 0.2081664044609368
 0.11155597501580061 0.20816640446089488 0.1115559750157942 0.2081664044609127 0.8002141913580433 -0.49179526421329506 -0.023326141389660326 0.07546245529153019
 0.11155597501579673 0.208166404460911 0.11155597501579577 0.20816640446093654 -0.023326141389660333 0.07546245529153016 0.8002141913580832 -0.4917952642132131
26000000.0 0.7863496976371097 -0.508637794319684 -0.01626554716108379 0.0878592876660983 0.11495792476197854 0.21038925332680644 0.11495792476197454 0.21038925332682296
 -0.016265547161083787 0.0878592876660983 0.7863496976371662 -0.5086377943195796 0.11495792476197186 0.21038925332682465 0.11495792476197374 0.21038925332684927
 0.11495792476197848 0.2103892533268064 0.11495792476197186 0.21038925332682462 0.793637685797191 -0.4985725752449372 -0.02355353532116426 0.07779406859135002
 0.1149579247619745 0.21038925332682287 0.1149579247619737 0.21038925332684918 -0.02355353532116426 0.07779406859134998 0.7936376857972324 -0.4985725752448543
26500000.0 0.7795015347321825 -0.5153612369102621 -0.016231814597383078 0.0902858854017068 0.11836513993259132 0.21253767575429158 0.11836513993258733 0.21253767575430862
 -0.016231814597383078 0.09028588540170679 0.7795015347322406 -0.5153612369101567 0.11836513993258461 0.21253767575431043 0.11836513993258667 0.21253767575433555
 0.11836513993259125 0.2125376757542915 0.11836513993258466 0.21253767575431046 0.7870169465265546 -0.5052241359433798 -0.02374722639175415 0.08014878443482283
 0.11836513993258728 0.2125376757543085 0.11836513993258656 0.21253767575433546 -0.02374722639175415 0.08014878443482279 0.787016946526597 -0.505224135943296
27000000.0 0.7726113344378819 -0.5219540705709045 -0.01616288348226414 0.0927289641262313 0.12177577452218175 0.2146125532223508 0.12177577452217776 0.21461255322236833
 -0.01616288348226412 0.09272896412623126 0.772611334437942 -0.521954070570798 0.12177577452217496 0.21461255322237013 0.1217757745221772 0.21461255322239584
 0.12177577452218163 0.21461255322235062 0.12177577452217499 0.21461255322237016 0.7803548786668957 -0.5117504635699106 -0.02390642771127692 0.08252535712523608
 0.12177577452217768 0.2146125532223682 0.12177577452217714 0.21461255322239572 -0.02390642771127691 0.08252535712523605 0.7803548786669396 -0.5117504635698261
27500000.0 0.7656820817561246 -0.5284169017775522 -0.016058169581773887 0.09518728313317974 0.12518804391281493 0.21661480932220067 0.1251880439128109 0.21661480932221866
 -0.016058169581773876 0.09518728313317973 0.7656820817561864 -0.5284169017774446 0.1251880439128081 0.21661480932222066 0.1251880439128105 0.2166148093222469
 0.12518804391281482 0.21661480932220048 0.12518804391280813 0.21661480932222069 0.7736543261469185 -0.5181521434039406 -0.024030413972567017 0.08492252475956658
 0.12518804391281083 0.2166148093222185 0.12518804391281038 0.21661480932224672 -0.024030413972567003 0.08492252475956652 0.7736543261469638 -0.518152143403855
28000000.0 0.7587166975683055 -0.5347504054199304 -0.015917147783976855 0.09765959263098266 0.12860022510782554 0.2185454063944886 0.12860022510782146 0.21854540639450706
 -0.01591714778397685 0.09765959263098266 0.7587166975683691 -0.5347504054198217 0.12860022510781863 0.21854540639450923 0.12860022510782115 0.21854540639453596
 0.12860022510782543 0.21854540639448852 0.12860022510781863 0.2185454063945092 0.7669180707601808 -0.5244298251438853 -0.02411852097585095 0.08733901235493592
 0.1286002251078214 0.21854540639450698 0.12860022510782107 0.21854540639453582 -0.024118520975850963 0.0873390123549359 0.7669180707602271 -0.5244298251437989
28500000.0 0.7517180377554614 -0.540955321148544 -0.015739351361544408 0.10014463665033865 0.132010656803031 0.22040534224911779 0.132010656803027 0.22040534224913677
 -0.015739351361544376 0.10014463665033864 0.7517180377555264 -0.5409553211484346 0.13201065680302407 0.2204053422491389 0.13201065680302682 0.2204053422491662
 0.13201065680303095 0.2204053422491177 0.13201065680302412 0.220405342249139 0.7601488314003046 -0.5305842193701836 -0.024170145006386787 0.08977353487197658
 0.13201065680302693 0.22040534224913666 0.13201065680302676 0.2204053422491661 -0.02417014500638679 0.08977353487197653 0.7601488314003524 -0.5305842193700965
29000000.0 0.7446888924937781 -0.547032449787755 -0.015524371104111957 0.1026411558403832 0.13541773930515588 0.22219564697370134 0.13541773930515189 0.22219564697372085
 -0.015524371104111933 0.10264115584038318 0.7446888924938452 -0.5470324497876446 0.13541773930514894 0.22219564697372318 0.13541773930515189 0.22219564697375102
 0.1354177393051558 0.22219564697370126 0.135417739305149 0.2221956469737232 0.7533492634653153 -0.5366160940773395 -0.0241847420756478 0.09222480012996578
 0.13541773930515177 0.2221956469737207 0.13541773930515177 0.22219564697375085 -0.024184742075647775 0.09222480012996574 0.7533492634653641 -0.5366160940772513
29500000.0 0.7376319857162589 -0.5529826498213468 -0.015271854330695585 0.10514789014969227 0.13881993430720696 0.2239173798358431 0.13881993430720294 0.223917379835863
 -0.015271854330695564 0.10514789014969224 0.7376319857163274 -0.5529826498212355 0.13881993430719994 0.22391737983586543 0.13881993430720305 0.22391737983589372
 0.1388199343072069 0.223917379835843 0.13881993430720002 0.22391737983586546 0.7465219584218754 -0.5425262712810679 -0.024161827036311014 0.0946915116094114
 0.13881993430720282 0.22391737983586285 0.138819934307203 0.2239173798358936 -0.024161827036311007 0.09469151160941135 0.7465219584219256 -0.5425262712809791
30000000.0 0.7305499747313419 -0.5588068339562119 -0.014981503792340225 0.10766358138892172 0.14221576453048743 0.22557162628366123 0.14221576453048337 0.22557162628368166
 -0.014981503792340213 0.1076635813889217 0.7305499747314119 -0.5588068339560996 0.1422157645304804 0.22557162628368418 0.14221576453048365 0.225571626283713
 0.14221576453048734 0.22557162628366112 0.14221576453048043 0.2255716262836842 0.7396694435202117 -0.5483156237058606 -0.024100972581208906 0.09717237113856841
 0.14221576453048332 0.22557162628368152 0.1422157645304836 0.2255716262837129 -0.02410097258120891 0.09717237113856839 0.739669443520263 -0.5483156237057708
30500000.0 0.7234454499893255 -0.5645059657690428 -0.014653076475001841 0.11018697567262659 0.145603813242826 0.22715949504822455 0.14560381324282196 0.2271594950482454
 -0.01465307647500182 0.11018697567262657 0.7234454499893976 -0.5645059657689299 0.145603813242819 0.2271594950482482 0.14560381324282246 0.22715949504827743
 0.14560381324282595 0.22715949504822447 0.145603813242819 0.22715949504824817 0.7327941816505738 -0.5539850715575312 -0.024001808136248894 0.09966608146111294
 0.14560381324282187 0.22715949504824529 0.14560381324282237 0.2271594950482774 -0.0240018081362489 0.09966608146111292 0.7327941816506262 -0.5539850715574406
31000000.0 0.7163209349875304 -0.5700810564402068 -0.014286382312454536 0.1127168257385115 0.14898272366244944 0.22868211535086452 0.14898272366244544 0.22868211535088595
 -0.014286382312454509 0.11271682573851148 0.7163209349876042 -0.5700810564400932 0.14898272366244245 0.22868211535088875 0.14898272366244616 0.22868211535091862
 0.14898272366244933 0.2286821153508644 0.14898272366244247 0.22868211535088878 0.7258985713321868 -0.5595355793846115 -0.023864018657109874 0.10217134868291405
 0.14898272366244536 0.2286821153508858 0.14898272366244605 0.22868211535091848 -0.023864018657109888 0.10217134868291403 0.7258985713322408 -0.5595355793845205
31500000.0 0.7091788863052702 -0.5755331615783092 -0.013881282818761179 0.11525189314302156 0.1523511982567325 0.23014063421766104 0.15235119825672855 0.2301406342176829
 -0.013881282818761177 0.11525189314302152 0.7091788863053452 -0.575533161578195 0.15235119825672558 0.2301406342176859 0.15235119825672946 0.23014063421771624
 0.15235119825673243 0.23014063421766098 0.15235119825672563 0.23014063421768594 0.7189849468257976 -0.5649681530317981 -0.023687343339287462 0.10468688459650827
 0.1523511982567285 0.23014063421768283 0.15235119825672938 0.23014063421771613 -0.02368734333928745 0.10468688459650823 0.7189849468258525 -0.5649681530317063
32000000.0 0.7020216937598641 -0.5808633781383177 -0.013437689649562374 0.11779095033280021 0.15570799794483559 0.23153621390277612 0.15570799794483176 0.23153621390279863
 -0.013437689649562368 0.1177909503328002 0.702021693759941 -0.5808633781382025 0.1557079979448286 0.23153621390280155 0.15570799794483284 0.23153621390283258
 0.1557079979448355 0.2315362139027761 0.15570799794482862 0.23153621390280163 0.7120555783610928 -0.5702838366880262 -0.023471574250790057 0.10721140888250676
 0.1557079979448317 0.23153621390279858 0.1557079979448327 0.2315362139028324 -0.023471574250790047 0.10721140888250669 0.7120555783611496 -0.570283836687934
32500000.0 0.6948516806751361 -0.5860728414355291 -0.012955563101124942 0.12033278259211025 0.15905194121298036 0.23287002942172733 0.15905194121297653 0.2328700294217502
 -0.012955563101124914 0.12033278259211026 0.6948516806752149 -0.5860728414354133 0.15905194121297342 0.23287002942175336 0.15905194121297783 0.23287002942178475
 0.15905194121298025 0.23287002942172713 0.15905194121297347 0.2328700294217534 0.7051126724705006 -0.5754837100311643 -0.02321655489648809 0.10974365118774322
 0.15905194121297647 0.2328700294217501 0.15905194121297772 0.23287002942178464 -0.02321655489648808 0.10974365118774318 0.7051126724705583 -0.5754837100310712
33000000.0 0.6876711042540562 -0.5911627222571082 -0.012434910555753288 0.12287618986684183 0.16238190315083417 0.23414326619515147 0.16238190315083043 0.23414326619517492
 -0.012434910555753267 0.1228761898668418 0.6876711042541361 -0.5911627222569916 0.16238190315082723 0.23414326619517817 0.16238190315083198 0.23414326619521017
 0.16238190315083406 0.23414326619515133 0.16238190315082732 0.23414326619517822 0.6981583724210977 -0.5805688854707749 -0.02292217872279378 0.1122823530805062
 0.16238190315083034 0.23414326619517478 0.1623819031508318 0.23414326619520998 -0.02292217872279377 0.11228235308050613 0.6981583724211566 -0.5805688854706812
33500000.0 0.6804821560474452 -0.5961342240724081 -0.011875784881810921 0.12541998846621247 0.16569681441716802 0.2353571178031163 0.16569681441716436 0.2353571178031403
 -0.01187578488181091 0.12541998846621247 0.6804821560475269 -0.5961342240722908 0.1656968144171612 0.23535711780314372 0.16569681441716608 0.2353571178031761
 0.16569681441716794 0.23535711780311624 0.1656968144171612 0.23535711780314372 0.6911947587366393 -0.5855405054898881 -0.02258838757100406 0.11482626988369027
 0.16569681441716427 0.2353571178031402 0.16569681441716597 0.23535711780317597 -0.022588387571004072 0.11482626988369023 0.6911947587366997 -0.5855405054897939
34000000.0 0.6732869625109306 -0.6009885803428143 -0.011278282796225239 0.12796301264370372 0.16899566014263198 0.23651278384957436 0.16899566014262832 0.23651278384959873
 -0.011278282796225206 0.1279630126437037 0.6732869625110143 -0.6009885803426969 0.1689956601426252 0.23651278384960228 0.16899566014263037 0.23651278384963523
 0.16899566014263187 0.23651278384957425 0.16899566014262526 0.23651278384960236 0.6842238498019843 -0.590399740086263 -0.02221517008727786 0.11737417238714992
 0.16899566014262826 0.2365127838495987 0.16899566014263032 0.2365127838496352 -0.022215170087277858 0.11737417238714991 0.6842238498020459 -0.5903997400861681
34500000.0 0.6660875856426207 -0.6057270519314172 -0.010642543196964196 0.1305041160591728 0.17227747877715593 0.23761146793614157 0.1722774787771524 0.23761146793616655
 -0.01064254319696417 0.13050411605917278 0.6660875856427056 -0.605727051931299 0.17227747877714925 0.23761146793617016 0.1722774787771547 0.23761146793620364
 0.17227747877715582 0.23761146793614146 0.1722774787771493 0.23761146793617022 0.677247602542501 -0.5951477843131909 -0.02180256009684365 0.11992484844094402
 0.17227747877715233 0.23761146793616642 0.1722774787771546 0.23761146793620352 -0.02180256009684365 0.11992484844094395 0.6772476025425639 -0.5951477843130957
35000000.0 0.6588860236942721 -0.6103509246124115 -0.00996874547258148 0.13304217312443561 0.1755413608891384 0.23865437574400766 0.17554136088913494 0.23865437574403311
 -0.009968745472581466 0.13304217312443556 0.6588860236943588 -0.6103509246122926 0.17554136088913178 0.23865437574403695 0.17554136088913747 0.2386543757440709
 0.1755413608891383 0.23865437574400752 0.17554136088913183 0.23865437574403695 0.6702679131713433 -0.5997858559195037 -0.02135063494965172 0.12247710443152524
 0.17554136088913486 0.23865437574403295 0.17554136088913738 0.23865437574407075 -0.021350634949651722 0.12247710443152517 0.6702679131714074 -0.5997858559194078
35500000.0 0.6516842119490287 -0.6148615066797705 -0.009257107795526574 0.13557608023492895 0.1787864479232322 0.2396427132224409 0.17878644792322881 0.23964271322246689
 -0.009257107795526567 0.13557608023492893 0.651684211949117 -0.6148615066796511 0.1787864479232257 0.2396427132224708 0.17878644792323165 0.23964271322250527
 0.17878644792323203 0.23964271322244074 0.17878644792322573 0.23964271322247083 0.6632866179977972 -0.6043151930880987 -0.020859513844294193 0.12502976664325466
 0.17878644792322873 0.23964271322246677 0.17878644792323153 0.23964271322250508 -0.020859513844294186 0.12502976664325458 0.6632866179978626 -0.6043151930880023
36000000.0 0.6444840235591246 -0.6192601266544061 -0.008507885405517198 0.13810475689033871 0.18201193092317894 0.2405776848820543 0.1820119309231757 0.2405776848820808
 -0.008507885405517192 0.13810475689033866 0.6444840235592144 -0.6192601266542865 0.18201193092317255 0.24057768488208484 0.18201193092317888 0.2405776848821198
 0.1820119309231788 0.24057768488205417 0.18201193092317264 0.24057768488208492 0.6563054942902333 -0.6087370522719772 -0.020329356136624833 0.1275816825079071
 0.18201193092317558 0.24057768488208062 0.18201193092317872 0.2405776848821196 -0.020329356136624867 0.12758168250790702 0.6563054942902997 -0.6087370522718804
36500000.0 0.6372872704372643 -0.6235481310887369 -0.007721368888870633 0.14062714670732 0.1852170492257853 0.24146049219072943 0.18521704922578214 0.24146049219075646
 -0.007721368888870596 0.14062714670731993 0.6372872704373558 -0.6235481310886168 0.185217049225779 0.24146049219076055 0.18521704922578558 0.241460492190796
 0.18521704922578514 0.2414604921907293 0.18521704922577903 0.2414604921907606 0.649326261187513 -0.6130527061265061 -0.019760359639118378 0.1301317217450865
 0.18521704922578205 0.24146049219075635 0.1852170492257855 0.24146049219079593 -0.019760359639118392 0.13013172174508644 0.649326261187581 -0.6130527061264087
37000000.0 0.6300957041957083 -0.6277268824673202 -0.006897882459293719 0.14314221832763976 0.1884010891317743 0.24229233206986148 0.1884010891317713 0.24229233206988904
 -0.006897882459293709 0.14314221832763976 0.6300957041958014 -0.6277268824671995 0.18840108913176817 0.2422923320698933 0.18840108913177508 0.24229233206992934
 0.1884010891317742 0.2422923320698614 0.1884010891317682 0.24229233206989337 0.6423505806530326 -0.617263441536367 -0.01915275891661713 0.13267877739668393
 0.18840108913177123 0.24229233206988895 0.1884010891317749 0.2422923320699292 -0.01915275891661713 0.13267877739668388 0.6423505806531019 -0.6172634415362692
37500000.0 0.6229110171274169 -0.6317977572019792 -0.006037782245239302 0.14564896622524645 0.19156338255889244 0.24307439548838825 0.19156338255888952 0.24307439548841622
 -0.006037782245239285 0.14564896622524642 0.6229110171275114 -0.631797757201858 0.19156338255888636 0.24307439548842064 0.1915633825588935 0.243074395488457
 0.19156338255889233 0.2430743954883881 0.1915633825588864 0.24307439548842066 0.635380058465907 -0.6213705577354343 -0.018506823583728335 0.13522176675869854
 0.19156338255888947 0.24307439548841614 0.1915633825588934 0.2430743954884569 -0.018506823583728346 0.13522176675869851 0.6353800584659772 -0.621370557735336
38000000.0 0.6157348432239159 -0.6357621437196486 -0.0051414545885510735 0.14814641141591095 0.19470330568229824 0.24380786615189098 0.19470330568229555 0.24380786615191952
 -0.005141454588551036 0.14814641141591095 0.6157348432240118 -0.6357621437195271 0.19470330568229235 0.24380786615192404 0.19470330568229985 0.24380786615196096
 0.1947033056822981 0.24380786615189085 0.1947033056822924 0.24380786615192407 0.6284162452441203 -0.6253753645176305 -0.01782285660875475 0.1377596322138902
 0.1947033056822954 0.24380786615191935 0.19470330568229965 0.24380786615196076 -0.017822856608754722 0.13775963221389018 0.6284162452441918 -0.6253753645175321
38500000.0 0.6085687592248649 -0.6396214406409867 -0.004209314358743093 0.15063360207319845 0.19782027756691914 0.2444939192839167 0.1978202775669165 0.2444939192839458
 -0.004209314358743084 0.1506336020731984 0.6085687592249628 -0.639621440640865 0.1978202775669134 0.24449391928395045 0.19782027756692114 0.24449391928398778
 0.19782027756691906 0.24449391928391667 0.19782027756691345 0.24449391928395053 0.6214606374947919 -0.6292791805366512 -0.017101192628669066 0.14029134196886017
 0.19782027756691645 0.2444939192839457 0.19782027756692105 0.2444939192839877 -0.01710119262866905 0.14029134196886012 0.6214606374948645 -0.6292791805365522
39000000.0 0.601414285694612 -0.6433770550476566 -0.0032418032868930242 0.1531096140546125 0.20091375879612003 0.24513372049654514 0.20091375879611756 0.24513372049657461
 -0.003241803286893043 0.15310961405461246 0.601414285694711 -0.6433770550475345 0.20091375879611448 0.2451337204965795 0.20091375879612253 0.24513372049661727
 0.20091375879611995 0.245133720496545 0.20091375879611453 0.24513372049657947 0.614514678687 -0.6330833316922978 -0.016342196279280154 0.14281589069925074
 0.20091375879611748 0.24513372049657453 0.2009137587961224 0.24513372049661714 -0.016342196279280123 0.14281589069925066 0.6145146786870738 -0.6330833316921983
39500000.0 0.5942728881213167 -0.6470304008360468 -0.0022393883227725068 0.1555735513418183 0.2039832501007069 0.24572842474713774 0.20398325010070456 0.24572842474716775
 -0.002239388322772481 0.15557355134181827 0.5942728881214174 -0.6470304008359242 0.20398325010070145 0.24572842474717269 0.2039832501007099 0.24572842474721093
 0.20398325010070673 0.24572842474713755 0.2039832501007015 0.24572842474717274 0.6075797603429318 -0.6367891496010594 -0.015546260544386868 0.14533230010682813
 0.20398325010070445 0.2457284247471676 0.20398325010070972 0.2457284247472108 -0.015546260544386886 0.14533230010682804 0.607579760343007 -0.6367891496009598
40000000.0 0.5871459780345227 -0.6505828971551016 -0.001202560018495755 0.15802454639888594 0.20702829099196504 0.2462791753781318 0.207028290991963 0.24627917537816243
 -0.0012025600184957406 0.1580245463988859 0.5871459780346248 -0.650582897154979 0.20702829099195982 0.24627917537816738 0.20702829099196862 0.2462791753782062
 0.20702829099196496 0.24627917537813176 0.20702829099195988 0.24627917537816746 0.6006572231434023 -0.64039797014848 -0.014713805127374758 0.1478396193922613
 0.20702829099196285 0.24627917537816227 0.20702829099196848 0.24627917537820604 -0.014713805127374758 0.14783961939226123 0.6006572231434786 -0.6403979701483801
40500000.0 0.5800349141373335 -0.6540359669258471 -0.00013183094163657326 0.1604617604525128 0.21004845840212932 0.24678710323669156 0.21004845840212738 0.2467871032367227
 -0.00013183094163656488 0.16046176045251276 0.5800349141374376 -0.6540359669257241 0.21004845840212427 0.2467871032367278 0.2100484584021334 0.2467871032367671
 0.2100484584021292 0.24678710323669148 0.21004845840212436 0.24678710323672784 0.59374835804408 -0.6439111321207736 -0.013845274848381873 0.15033692564743606
 0.21004845840212724 0.24678710323672248 0.2100484584021332 0.24678710323676686 -0.013845274848381862 0.15033692564743595 0.5937483580441573 -0.6439111321206731
41000000.0 0.5729410034496303 -0.657391035440129 0.0009722658795525103 0.1628843836981822 0.21304336533538598 0.24725332587099846 0.2130433653353841 0.24725332587103005
 0.0009722658795525241 0.16288438369818214 0.5729410034497355 -0.6573910354400061 0.21304336533538115 0.24725332587103527 0.2130433653353905 0.2472533258710749
 0.2130433653353858 0.2472533258709983 0.21304336533538126 0.24725332587103535 0.5868544073990296 -0.6473299759131038 -0.012941138069845901 0.15282332417115357
 0.21304336533538404 0.2472533258710299 0.21304336533539037 0.2472533258710748 -0.012941138069845917 0.15282332417115352 0.5868544073991082 -0.6473299759130029
41500000.0 0.5658655024590163 -0.6606495290360388 0.0021091784764873493 0.1652916354361938 0.21601265953222493 0.24767894679994792 0.21601265953222332 0.24767894679998007
 0.002109178476487361 0.1652916354361937 0.5658655024591228 -0.6606495290359153 0.21601265953222032 0.24767894679998542 0.2160126595322301 0.24767894680002556
 0.21601265953222484 0.24767894679994784 0.21601265953222043 0.24767894679998548 0.5799765660884475 -0.6506558423119001 -0.012001885152942959 0.1552979487120515
 0.21601265953222323 0.24767894679997987 0.21601265953222998 0.24767894680002547 -0.01200188515294295 0.1552979487120514 0.5799765660885271 -0.6506558423117988
42000000.0 0.5588096182764499 -0.6638128738474612 0.003278337424121674 0.16768276414146666 0.21895602214969037 0.24806505485302321 0.218956022149689 0.2480650548530558
 0.003278337424121704 0.16768276414146657 0.5588096182765583 -0.6638128738473377 0.21895602214968599 0.2480650548530613 0.2189560221496961 0.24806505485310187
 0.2189560221496903 0.24806505485302313 0.21895602214968612 0.24806505485306143 0.5731159826477121 -0.6538900713485587 -0.011028026947139542 0.15775996164256065
 0.21895602214968884 0.2480650548530556 0.21895602214969592 0.24806505485310168 -0.011028026947139537 0.15775996164256054 0.5731159826477927 -0.6538900713484572
42500000.0 0.5517745097937458 -0.6668824946251696 0.004479157286568433 0.1700570474709654 0.22187316645981858 0.24841272357712862 0.2218731664598173 0.24841272357716163
 0.0044791572865684305 0.1700570474709653 0.5517745097938554 -0.6668824946250459 0.22187316645981445 0.24841272357716734 0.2218731664598248 0.24841272357720826
 0.22187316645981844 0.24841272357712849 0.22187316645981453 0.24841272357716734 0.5662737603951234 -0.6570340012218785 -0.01002009331480826 0.16020855406767076
 0.22187316645981717 0.24841272357716146 0.2218731664598247 0.24841272357720814 -0.010020093314808267 0.1602085540676707 0.5662737603952054 -0.6570340012217768
43000000.0 0.5447612888403682 -0.6698598136268801 0.0057110380229609915 0.1724137922125376 0.2247638365683104 0.24872301070719816 0.22476383656830937 0.24872301070723177
 0.005711038022960989 0.17241379221253755 0.5447612888404794 -0.6698598136267563 0.22476383656830654 0.24872301070723754 0.22476383656831725 0.24872301070727895
 0.2247638365683103 0.2487230107071981 0.22476383656830673 0.24872301070723762 0.5594509585559262 -0.6600889672865716 -0.008978631692595914 0.16264294587222541
 0.22476383656830926 0.24872301070723163 0.2247638365683171 0.24872301070727879 -0.008978631692595896 0.16264294587222533 0.559450958556009 -0.6600889672864694
43500000.0 0.5377710213371597 -0.6727462495736876 0.006973366352284932 0.17475233417887734 0.22762780615525224 0.24899695769743257 0.22762780615525138 0.2489969576974666
 0.006973366352284962 0.17475233417887734 0.5377710213372722 -0.6727462495735635 0.2276278061552485 0.24899695769747246 0.22762780615525965 0.24899695769751437
 0.2276278061552521 0.24899695769743246 0.2276278061552485 0.24899695769747246 0.5526485933804358 -0.6630563011052167 -0.007904205690990564 0.16506238571040288
 0.22762780615525124 0.24899695769746646 0.2276278061552595 0.24899695769751418 -0.007904205690990557 0.1650623857104028 0.5526485933805202 -0.6630563011051146
44000000.0 0.5308047284448482 -0.6755432166703202 0.008265517076140986 0.17707203805024604 0.2304648772394794 0.249235589310065 0.2304648772394787 0.24923558931009956
 0.008265517076141 0.17707203805024602 0.5308047284449622 -0.675543216670196 0.23046487723947598 0.24923558931010556 0.2304648772394875 0.24923558931014786
 0.2304648772394792 0.2492355893100648 0.23046487723947598 0.2492355893101055 0.5458676392542916 -0.6659373295610428 -0.006797393733301849 0.1674661509409649
 0.23046487723947864 0.24923558931009943 0.23046487723948728 0.2492355893101477 -0.006797393733301861 0.16746615094096484 0.545867639254377 -0.6659373295609402
44500000.0 0.5238633877053854 -0.6782521236866745 0.009586854358612501 0.17937229716949063 0.23327487896797436 0.24943991325862053 0.23327487896797391 0.24943991325865555
 0.009586854358612533 0.17937229716949055 0.5238633877055008 -0.6782521236865504 0.23327487896797122 0.24943991325866163 0.23327487896798305 0.24943991325870435
 0.23327487896797414 0.24943991325862036 0.23327487896797122 0.24943991325866163 0.5391090297990522 -0.6687333740289614 -0.005658787735053326 0.16985354751177353
 0.23327487896797378 0.2494399132586554 0.23327487896798285 0.2494399132587042 -0.005658787735053352 0.16985354751177348 0.5391090297991386 -0.6687333740288586
45000000.0 0.5169479341743441 -0.6808743730981293 0.010936732962613119 0.18165253329280154 0.23605766643149423 0.24961091990269288 0.23605766643149398 0.24961091990272835
 0.010936732962613145 0.18165253329280148 0.5169479341744607 -0.680874373098005 0.23605766643149126 0.24961091990273457 0.23605766643150347 0.2496109199027777
 0.23605766643149406 0.2496109199026927 0.23605766643149134 0.2496109199027346 0.5323736589615412 -0.6714457496023173 -0.004488991824583253 0.17222390979698565
 0.23605766643149387 0.24961091990272818 0.23605766643150333 0.2496109199027775 -0.004488991824583237 0.17222390979698557 0.5323736589616287 -0.6714457496022143
45500000.0 0.5100592615427828 -0.6834113602821688 0.01231449944227315 0.18391219629954678 0.23881311950744408 0.2497495819913405 0.23881311950744424 0.24974958199137648
 0.012314499442273181 0.18391219629954672 0.5100592615429009 -0.6834113602820442 0.23881311950744147 0.24974958199138286 0.23881311950745412 0.24974958199142636
 0.23881311950744397 0.2497495819913404 0.2388131195074416 0.24974958199138295 0.5256623820905182 -0.6740757643728646 -0.0032886211054611904 0.17457660039023892
 0.23881311950744402 0.24974958199137623 0.23881311950745393 0.24974958199142616 -0.003288621105461205 0.1745766003902388 0.5256623820906067 -0.6740757643727617
46000000.0 0.5031982232471557 -0.6858644727689044 0.013719493291099318 0.18615076386441048 0.24154114173084407 0.24985685445227707 0.2415411417308444 0.24985685445231354
 0.013719493291099321 0.18615076386441046 0.5031982232472753 -0.6858644727687802 0.2415411417308418 0.24985685445232 0.24154114173085484 0.2498568544523639
 0.24154114173084396 0.249856854452277 0.24154114173084187 0.24985685445232012 0.5189760169994081 -0.6766247187615386 -0.002058300461152393 0.17691100985704072
 0.2415411417308443 0.24985685445231337 0.2415411417308546 0.24985685445236372 -0.0020583004611524043 0.17691100985704064 0.5189760169994976 -0.6766247187614355
46500000.0 0.496365633565987 -0.6882350895431233 0.015151048045798393 0.188367741094951 0.2442416591940782 0.24993367422411675 0.24424165919407875 0.2499336742241536
 0.015151048045798374 0.188367741094951 0.49636563356610797 -0.6882350895429986 0.2442416591940763 0.24993367422416038 0.24424165919408955 0.24993367422420457
 0.24424165919407814 0.24993367422411666 0.24424165919407628 0.24993367422416038 0.5123153450139856 -0.6790939048976437 -0.0007986634021992406 0.17922655644946758
 0.24424165919407864 0.24993367422415352 0.2442416591940894 0.24993367422420448 -0.0007986634021992571 0.17922655644946753 0.5123153450140762 -0.6790939048975402
47000000.0 0.4895622687021922 -0.6905245803955521 0.016608492345804787 0.19056266013757722 0.24691461947597185 0.2499809601290187 0.2469146194759727 0.2499809601290561
 0.01660849234580481 0.19056266013757714 0.4895622687023142 -0.6905245803954274 0.24691461947597007 0.24998096012906276 0.24691461947598384 0.24998096012910737
 0.24691461947597174 0.24998096012901863 0.24691461947597018 0.24998096012906285 0.5056811120040362 -0.6814846060441493 0.0004896490439616359 0.18152268578617045
 0.24691461947597254 0.24998096012905596 0.2469146194759837 0.24998096012910728 0.0004896490439616535 0.18152268578617037 0.5056811120041279 -0.6814846060440458
47500000.0 0.4827888678500432 -0.6927343053210906 0.018091150948684163 0.19273507975482368 0.2495599906006061 0.24999961278316515 0.24955999060060713 0.24999961278320296
 0.01809115094868417 0.1927350797548236 0.48278886785016645 -0.6927343053209657 0.24955999060060466 0.24999961278320984 0.24955999060061873 0.24999961278325486
 0.24955999060060594 0.24999961278316502 0.24955999060060474 0.2499996127832098 0.4990740293981636 -0.6837980960668457 0.0018059894005644586 0.18379887050057486
 0.24955999060060696 0.24999961278320287 0.2495599906006186 0.2499996127832547 0.0018059894005644367 0.18379887050057483 0.49907402939825635 -0.6837980960667419
48000000.0 0.47604613424591874 -0.694865613961816 0.019598345701708892 0.1948845848766862 0.25217776002615533 0.24999051454259727 0.2521777600261566 0.2499905145426357
 0.0195983457017089 0.19488458487668617 0.47604613424604353 -0.6948656139616914 0.25217776002615416 0.2499905145426425 0.25217776002616876 0.24999051454268803
 0.2521777600261551 0.24999051454259716 0.25217776002615433 0.24999051454264262 0.49249477518101953 -0.6860356389451797 0.0031497047666086855 0.18605460986004566
 0.2521777600261565 0.24999051454263552 0.2521777600261685 0.24999051454268784 0.0031497047666087024 0.18605460986004552 0.49249477518111356 -0.6860356389450757
48500000.0 0.4693347362020857 -0.6969198450926424 0.02112939647001324 0.19701078612865808 0.25476793366391914 0.24995452948202504 0.25476793366392064 0.2499545294820638
 0.021129396470013204 0.19701078612865805 0.46933473620221167 -0.6969198450925178 0.25476793366391837 0.24995452948207092 0.2547679336639333 0.24995452948211674
 0.25476793366391903 0.249954529482025 0.2547679336639184 0.24995452948207092 0.485943994872356 -0.6881984883226651 0.004520137799743449 0.18828942935867657
 0.25476793366392064 0.24995452948206376 0.2547679336639331 0.24995452948211652 0.004520137799743463 0.18828942935867649 0.48594399487245105 -0.6881984883225613
49000000.0 0.4626553081228688 -0.6988983261475656 0.022683622021834486 0.19911331933898868 0.25733053492761626 0.24989250340432198 0.25733053492761815 0.24989250340436123
 0.022683622021834503 0.19911331933898863 0.462655308122996 -0.698898326147441 0.2573305349276158 0.24989250340436842 0.25733053492763114 0.24989250340441452
 0.2573305349276161 0.2498925034043219 0.2573305349276158 0.2498925034043684 0.4794223024873961 -0.6902878870948297 0.0059166276573079475 0.19050288028624868
 0.2573305349276179 0.249892503404361 0.25733053492763097 0.24989250340441438 0.005916627657307908 0.1905028802862486 0.4794223024874921 -0.6902878870947259
49500000.0 0.45600845150267044 -0.7008023727845115 0.024260340871439898 0.201191845027565 0.25986560381291224 0.24980526387850746 0.25986560381291424 0.24980526387854712
 0.02426034087143992 0.2011918450275649 0.45600845150279884 -0.700802372784387 0.25986560381291207 0.24980526387855437 0.2598656038129277 0.24980526387860086
 0.259865603812912 0.24980526387850735 0.2598656038129122 0.24980526387855448 0.4729302814781211 -0.6923050670327378 0.007338510895989957 0.19269453927578684
 0.2598656038129142 0.249805263878547 0.25986560381292767 0.2498052638786008 0.007338510895989953 0.19269453927578678 0.472930281478218 -0.6923050670326336
50000000.0 0.4493947359053857 -0.7026332884868555 0.02585887208041703 0.20324604787869802 0.2623731960070654 0.24969362030411354 0.2623731960070678 0.24969362030415368
 0.02585887208041707 0.2032460478786979 0.4493947359055153 -0.702633288486731 0.26237319600706555 0.249693620304161 0.26237319600708175 0.24969362030420789
 0.2623731960070652 0.24969362030411346 0.2623731960070657 0.2496936203041611 0.4664684856551542 -0.6942512484401914 0.00878512233064905 0.19486400783202945
 0.2623731960070677 0.24969362030415354 0.2623731960070816 0.2496936203042078 0.008785122330649044 0.1948640078320294 0.4664684856552523 -0.6942512484400873
50500000.0 0.4428146999248531 -0.7043923641997611 0.027478536018079074 0.20527563619998024 0.26485338202849995 0.2495583639999259 0.2648533820285026 0.24955836399996648
 0.027478536018079078 0.20527563619998013 0.4428146999249841 -0.7043923641996369 0.26485338202850045 0.2495583639999739 0.26485338202851705 0.2495583640000211
 0.26485338202849973 0.24955836399992568 0.2648533820285005 0.2495583639999739 0.4600374400900057 -0.6961276398428011 0.01025579585292698 0.1970109118430156
 0.2648533820285025 0.2495583639999663 0.2648533820285169 0.249558364000021 0.01025579585292694 0.19701091184301556 0.4600374400901049 -0.6961276398426969
51000000.0 0.43626885212605243 -0.7060808779995501 0.029118655081798533 0.20728034136926285 0.26730624639604 0.2494002683151797 0.2673062463960429 0.24940026831522072
 0.02911865508179853 0.2072803413692628 0.43626885212618477 -0.706080877999426 0.26730624639604095 0.24940026831522827 0.2673062463960578 0.24940026831527587
 0.26730624639603984 0.24940026831517956 0.267306246396041 0.24940026831522827 0.45363764199751383 -0.6979354377071727 0.011749865210337638 0.19913490107688073
 0.2673062463960428 0.24940026831522058 0.2673062463960576 0.2494002683152757 0.01174986521033763 0.19913490107688067 0.45363764199761386 -0.6979354377070681
51500000.0 0.4297576719668303 -0.707700094794382 0.030778554378139002 0.20925991727168938 0.26973188682748 0.24922008876138288 0.26973188682748334 0.24922008876142437
 0.030778554378139023 0.20925991727168936 0.4297576719669639 -0.7077000947942577 0.2697318868274813 0.24922008876143203 0.26973188682749877 0.24922008876147997
 0.2697318868274798 0.24922008876138274 0.2697318868274814 0.24922008876143203 0.4472695615983827 -0.6996758261885401 0.01326666474658716 0.201235648665843
 0.2697318868274832 0.2492200887614242 0.26973188682749855 0.2492200887614798 0.013266664746587198 0.20123564866584293 0.4472695615984841 -0.6996758261884359
52000000.0 0.42328161070001297 -0.7092512660545932 0.032457562365700486 0.21121413972861197 0.2721304134671075 0.24901856316302784 0.27213041346711103 0.2490185631630698
 0.0324575623657005 0.21121413972861197 0.42328161070014764 -0.7092512660544692 0.27213041346710914 0.24901856316307755 0.27213041346712696 0.24901856316312582
 0.2721304134671074 0.24901856316302778 0.27213041346710926 0.24901856316307758 0.440933642961787 -0.7013499769052429 0.014805530103926835 0.20331285057925694
 0.2721304134671109 0.24901856316306964 0.27213041346712674 0.24901856316312568 0.014805530103926861 0.20331285057925688 0.440933642961889 -0.7013499769051385
52500000.0 0.41684109225580346 -0.7107356295711091 0.034155011460635376 0.21314280592010665 0.27450194814174406 0.24879641182553927 0.27450194814174805 0.2487964118255816
 0.03415501146063541 0.21314280592010654 0.41684109225593957 -0.7107356295709852 0.2745019481417461 0.24879641182558948 0.2745019481417644 0.24879641182563797
 0.27450194814174383 0.2487964118255391 0.27450194814174617 0.24879641182558956 0.4346303048280503 -0.7029590487385105 0.01636579888838899 0.2053662250875032
 0.27450194814174783 0.2487964118255814 0.27450194814176415 0.24879641182563794 0.016365798888388967 0.2053662250875031 0.43463030482815346 -0.7029590487384062
53000000.0 0.4104365141044391 -0.7121544092404075 0.03587023860582669 0.21504573380270117 0.2768466236448299 0.24855433771889174 0.27684662364483426 0.24855433771893445
 0.035870238605826686 0.21504573380270114 0.41043651410457627 -0.7121544092402835 0.27684662364483237 0.24855433771894242 0.276846623644851 0.24855433771899135
 0.27684662364482976 0.24855433771889165 0.2768466236448325 0.2485543377189425 0.42835994141147427 -0.7045041876560943 0.01794681129879191 0.2073955122183835
 0.27684662364483414 0.2485543377189343 0.27684662364485085 0.2485543377189911 0.01794681129879195 0.2073955122183834 0.4283599414115781 -0.7045041876559902
53500000.0 0.4040682480991104 -0.7135088148745771 0.03760258580474491 0.21692276152382575 0.2791645830480347 0.24829302667541492 0.27916458304803926 0.2482930266754581
 0.03760258580474489 0.21692276152382564 0.4040682480992483 -0.7135088148744534 0.2791645830480375 0.2482930266754661 0.2791645830480566 0.24829302667551537
 0.27916458304803465 0.24829302667541492 0.2791645830480377 0.2482930266754662 0.42212292318342043 -0.7059865265583457 0.01954791072043495 0.20940047320758964
 0.2791645830480391 0.24829302667545797 0.27916458304805647 0.24829302667551523 0.019547910720434943 0.20940047320758945 0.42212292318352534 -0.7059865265582412
54000000.0 0.39773664129920344 -0.7148000420350801 0.03935140062102594 0.21877374683439663 0.28145597903984704 0.24801314760038176 0.28145597903985187 0.24801314760042537
 0.039351400621025934 0.21877374683439652 0.39773664129934255 -0.7148000420349564 0.28145597903985003 0.24801314760043341 0.28145597903986963 0.24801314760048296
 0.2814559790398468 0.2480131476003816 0.28145597903985015 0.24801314760043341 0.4159195976358001 -0.7074071851454068 0.021168444284429634 0.21138088994471835
 0.2814559790398517 0.24801314760042514 0.2814559790398694 0.24801314760048276 0.021168444284429627 0.21138088994471818 0.4159195976359061 -0.7074071851453023
54500000.0 0.3914420167739634 -0.7160292718888831 0.04111603664482579 0.22059856650085088 0.2837209732905665 0.24771535269405673 0.2837209732905716 0.24771535269410067
 0.04111603664482581 0.22059856650085086 0.3914420167741038 -0.7160292718887595 0.28372097329057017 0.247715352694109 0.2837209732905899 0.2477153526941587
 0.28372097329056634 0.24771535269405656 0.2837209732905701 0.24771535269410896 0.4097502900251534 -0.7087672698042483 0.022807763393636018 0.21333656441621116
 0.28372097329057155 0.2477153526941005 0.2837209732905898 0.24771535269415865 0.02280776339363596 0.21333656441621116 0.40975029002526014 -0.7087672698041438
55000000.0 0.38518467438670106 -0.7171976710856843 0.04289585392702136 0.22239711571785498 0.2859597358430991 0.24740027768395595 0.2859597358431046 0.24740027768400036
 0.04289585392702139 0.2223971157178549 0.3851846743868426 -0.7171976710855609 0.28595973584310314 0.24740027768400868 0.2859597358431234 0.2474002776840589
 0.28595973584309886 0.24740027768395578 0.28595973584310314 0.24740027768400874 0.403615304097534 -0.7100678735143431 0.02446522421618887 0.21526731814650882
 0.2859597358431044 0.24740027768400014 0.2859597358431232 0.24740027768405873 0.02446522421618883 0.21526731814650865 0.4036153040976418 -0.7100678735142386
55500000.0 0.3789648915597183 -0.7183063916550243 0.04469021938233398 0.22416930752282233 0.2881724445289338 0.24706854206614298 0.2881724445289395 0.24706854206618772
 0.044690219382333966 0.22416930752282227 0.37896489155986074 -0.7183063916549011 0.28817244452893814 0.24706854206619622 0.2881724445289586 0.24706854206624654
 0.2881724445289336 0.24706854206614287 0.28817244452893825 0.2470685420661962 0.39751492279444095 -0.7113100757708265 0.02614018814761127 0.21717299163861936
 0.2881724445289393 0.24706854206618759 0.2881724445289585 0.24706854206624643 0.026140188147611244 0.2171729916386193 0.3975149227945497 -0.7113100757707218
56000000.0 0.3727829240201293 -0.7193565709221182 0.046498507162455086 0.2259150722132914 0.290359284408667 0.24672074935445595 0.29035928440867304 0.24672074935450108
 0.04649850716245511 0.22591507221329138 0.3727829240202732 -0.719356570921995 0.29035928440867176 0.24672074935450963 0.29035928440869285 0.2467207493545604
 0.29035928440866676 0.24672074935445584 0.29035928440867176 0.24672074935450972 0.39144940894006397 -0.7124949425240532 0.027832022242520425 0.21905344381522143
 0.290359284408673 0.24672074935450106 0.2903592844086927 0.24672074935456031 0.027832022242520443 0.2190534438152214 0.39144940894017377 -0.7124949425239487
56500000.0 0.36663900652680753 -0.7203493314413071 0.04832009900025394 0.22763435676813257 0.2925204472364278 0.24635748733663063 0.29252044723643417 0.24635748733667615
 0.048320099000253976 0.2276343567681325 0.3666390065269523 -0.7203493314411837 0.29252044723643306 0.24635748733668494 0.2925204472364544 0.24635748733673574
 0.29252044723642767 0.2463574873366305 0.2925204472364331 0.24635748733668483 0.3854190059101259 -0.7136235261345164 0.02954009961693568 0.2209085514613366
 0.29252044723643406 0.246357487336676 0.29252044723645426 0.2463574873367357 0.029540099616935694 0.22090855146133662 0.3854190059102365 -0.7136235261344117
57000000.0 0.36053335357868166 -0.7212857809460768 0.050154384526143264 0.22932712427347415 0.29465613094754545 0.2459793283363454 0.29465613094755216 0.24597932833639127
 0.050154384526143264 0.2293271242734741 0.3605333535788275 -0.7212857809459539 0.294656130947551 0.24597932833640002 0.2946561309475729 0.24597932833645125
 0.29465613094754534 0.24597932833634523 0.2946561309475511 0.24597932833640004 0.37942393828262605 -0.7146968653421416 0.031263799822198735 0.22273820866953373
 0.294656130947552 0.24597932833639113 0.29465613094757276 0.24597932833645114 0.0312637998221987 0.22273820866953364 0.37942393828273757 -0.714696865342037
57500000.0 0.35446616010464793 -0.72216701231464 0.05200076155767073 0.23099335335416527 0.2967665391687979 0.24558682948028224 0.296766539168805 0.2455868294803286
 0.052000761557670735 0.23099335335416518 0.35446616010479526 -0.7221670123145174 0.29676653916880386 0.2455868294803374 0.2967665391688263 0.24558682948038896
 0.29676653916879764 0.24558682948028204 0.29676653916880386 0.2455868294803374 0.37346441247080536 -0.7157159852490304 0.033002509191513554 0.22454232628855036
 0.2967665391688048 0.2455868294803283 0.29676653916882606 0.24558682948038876 0.03300250919151354 0.22454232628855028 0.37346441247091766 -0.7157159852489261
58000000.0 0.34843760213536656 -0.7229941035501322 0.05385863636339734 0.23263303761151907 0.29885188075057467 0.2451805329693521 0.2988518807505821 0.24518053296939876
 0.05385863636339735 0.23263303761151902 0.3484376021355147 -0.7229941035500096 0.29885188075058106 0.24518053296940773 0.2988518807506038 0.2451805329694595
 0.29885188075057445 0.24518053296935194 0.29885188075058117 0.24518053296940767 0.36754061733865445 -0.7166818973147655 0.03475562116010952 0.2263208313761471
 0.29885188075058194 0.2451805329693986 0.2988518807506036 0.2451805329694593 0.034755621160109475 0.22632083137614703 0.3675406173387677 -0.716681897314661
58500000.0 0.34244783745722646 -0.7237681177745126 0.0557274239021095 0.23424618506801645 0.300912369320288 0.24476096635329428 0.30091236932029575 0.24476096635334144
 0.05572742390210952 0.23424618506801642 0.3424478374573755 -0.7237681177743902 0.30091236932029475 0.24476096635335037 0.30091236932031795 0.24476096635340247
 0.30091236932028775 0.24476096635329422 0.3009123693202948 0.24476096635335035 0.36165272479931476 -0.7175955993634457 0.036522536560021246 0.22807366665694434
 0.3009123693202957 0.24476096635334127 0.30091236932031784 0.24476096635340228 0.03652253656002124 0.2280736666569442 0.3616527247994289 -0.7175955993633415
59000000.0 0.3364970062487838 -0.724490103235313 0.05760654803839764 0.23583281761958164 0.3029482228563647 0.24432864280791272 0.3029482228563729 0.24432864280796027
 0.057606548038397654 0.23583281761958158 0.3364970062489337 -0.7244901032351908 0.30294822285637196 0.2443286428079693 0.3029482228563956 0.24432864280802155
 0.3029482228563645 0.24432864280791267 0.302948222856372 0.2443286428079693 0.3558008903967099 -0.7184580756016615 0.0383026638904713 0.22980078998592465
 0.3029482228563727 0.24432864280795996 0.3029482228563954 0.24432864280802136 0.038302663890471274 0.22980078998592457 0.35580089039682494 -0.7184580756015574
59500000.0 0.3305852316999747 -0.7251610933244124 0.05949544173561986 0.23739297049598324 0.3049596632821575 0.2438840614142624 0.304959663282166 0.24388406141431027
 0.059495441735619825 0.23739297049598312 0.3305852317001257 -0.7251610933242906 0.3049596632821652 0.2438840614143194 0.3049596632821892 0.24388406141437197
 0.3049596632821574 0.24388406141426236 0.3049596632821653 0.24388406141431931 0.34998525387076795 -0.7192702966466598 0.04009541956482647 0.23150217381822485
 0.3049596632821658 0.24388406141431002 0.304959663282189 0.24388406141437174 0.04009541956482646 0.23150217381822474 0.3499852538708837 -0.7192702966465553
60000000.0 0.32471262061442613 -0.7257821066080649 0.06139354722724815 0.23892669172985606 0.3069469160791169 0.24342770743915298 0.3069469160791258 0.24342770743920117
 0.061393547227248164 0.23892669172985598 0.3247126206145783 -0.7257821066079431 0.306946916079125 0.24342770743921038 0.3069469160791496 0.2434277074392632
 0.30694691607911667 0.24342770743915282 0.3069469160791251 0.24342770743921033 0.3442059397065869 -0.7200332195639969 0.04190022813508737 0.23317780468578256
 0.3069469160791256 0.24342770743920095 0.3069469160791494 0.24342770743926306 0.04190022813508736 0.23317780468578247 0.34420593970670343 -0.7200332195638928
60500000.0 0.3188792639951809 -0.726354146867442 0.06330031616757985 0.2404340416347834 0.3089102099185731 0.24296005261637865 0.3089102099185823 0.2429600526164271
 0.06330031616757989 0.24043404163478335 0.31887926399533406 -0.7263541468673207 0.30891020991858165 0.2429600526164364 0.3089102099186065 0.2429600526164893
 0.308910209918573 0.24296005261637854 0.3089102099185817 0.24296005261643644 0.33846305766790724 -0.7207477879140124 0.043716522494853464 0.2348276826813482
 0.30891020991858215 0.24296005261642692 0.3089102099186064 0.2429600526164892 0.043716522494853464 0.23482768268134807 0.33846305766802454 -0.7207477879139084
61000000.0 0.3130852376141695 -0.7268782031489929 0.06521520976277004 0.24191509229282912 0.31084977631148303 0.24248155542813207 0.3108497763114926 0.24248155542818087
 0.06521520976277004 0.24191509229282906 0.31308523761432355 -0.7268782031488719 0.3108497763114921 0.2424815554281903 0.3108497763115174 0.24248155542824354
 0.3108497763114828 0.2424815554281319 0.31084977631149213 0.2424815554281903 0.332756703315251 -0.7214149318064901 0.04554374406168853 0.2364518209503207
 0.3108497763114924 0.24248155542818073 0.3108497763115172 0.24248155542824343 0.04554374406168851 0.2364518209503206 0.3327567033153693 -0.7214149318063862
61500000.0 0.30733060256575756 -0.7273552498239578 0.06713769888312686 0.2433699270518593 0.3127658492755099 0.24199266138610012 0.3127658492755199 0.2419926613861494
 0.06713769888312687 0.24336992705185928 0.3073306025659127 -0.7273552498238369 0.31276584927551937 0.2419926613861588 0.31276584927554535 0.24199266138621234
 0.3127658492755096 0.24199266138609996 0.31276584927551937 0.2419926613861588 0.32708695850908853 -0.7220355679629197 0.04738134293979557 0.23805024519081558
 0.31276584927551976 0.24199266138614922 0.312765849275545 0.24199266138621212 0.04738134293979558 0.2380502451908155 0.32708695850920777 -0.722035567962816
62000000.0 0.30161540580470514 -0.7277862466564081 0.06906726415758037 0.24479864003294916 0.31465866501880885 0.24149380331178097 0.31465866501881923 0.24149380331183057
 0.0690672641575804 0.24479864003294913 0.30161540580486085 -0.7277862466562872 0.31465866501881873 0.24149380331184006 0.3146586650188451 0.24149380331189377
 0.3146586650188087 0.241493803311781 0.3146586650188188 0.2414938033118401 0.3214538918983985 -0.7226105997857938 0.0492287780638865 0.2396229931623293
 0.314658665018819 0.24149380331183037 0.31465866501884476 0.2414938033118936 0.049228778063886466 0.23962299316232913 0.3214538918985185 -0.7226105997856901
62500000.0 0.2959396806688688 -0.7281721388792182 0.07100339605121965 0.24620133564812663 0.31652846163990667 0.24098540161559817 0.3165284616399175 0.24098540161564808
 0.07100339605121968 0.24620133564812652 0.29593968066902576 -0.7281721388790977 0.31652846163991705 0.24098540161565762 0.31652846163994386 0.24098540161571158
 0.31652846163990656 0.24098540161559814 0.3165284616399172 0.2409854016156577 0.3158575593949715 -0.7231409174344146 0.05108551732511646 0.2411701142033174
 0.31652846163991727 0.24098540161564788 0.3165284616399437 0.24098540161571147 0.05108551732511641 0.24117011420331727 0.3158575593950923 -0.7231409174343112
63000000.0 0.2903034473869887 -0.7285138572774064 0.07294559492676363 0.24757812812866295 0.31837547884307416 0.2404678645744251 0.3183754788430853 0.24046786457447533
 0.07294559492676364 0.24757812812866287 0.2903034473871463 -0.7285138572772861 0.31837547884308504 0.24046786457448496 0.3183754788431121 0.24046786457453898
 0.31837547884307393 0.24046786457442496 0.31837547884308504 0.24046786457448494 0.31029800463382406 -0.7236273979067148 0.05295103767992784 0.2426916687579657
 0.31837547884308515 0.24046786457447505 0.3183754788431119 0.24046786457453884 0.05295103767992788 0.2426916687579656 0.31029800463394547 -0.7236273979066115
63500000.0 0.2847067135718879 -0.7288123182783105 0.07489337109080961 0.2489291410640874 0.320199957668601 0.2399415886071656 0.3201999576686124 0.23994158860721607
 0.07489337109080962 0.24892914106408737 0.28470671357204663 -0.7288123182781905 0.3201999576686123 0.23994158860722595 0.3201999576686398 0.2399415886072801
 0.32019995766860077 0.23994158860716552 0.3201999576686123 0.23994158860722592 0.3047752594200677 -0.7240709051266213 0.05482482524262939 0.24418772791239257
 0.3201999576686122 0.23994158860721596 0.3201999576686396 0.23994158860728007 0.05482482524262933 0.2441877279123925 0.30477525942018974 -0.7240709051265178
64000000.0 0.27914947469942425 -0.7290684240480932 0.0768462448256755 0.2502545069520617 0.32200214023739915 0.23940695854807043 0.32200214023741086 0.23940695854812127
 0.07684624482567544 0.2502545069520617 0.2791494746995838 -0.7290684240479735 0.3220021402374108 0.23940695854813104 0.32200214023743884 0.23940695854818564
 0.322002140237399 0.23940695854807037 0.32200214023741086 0.23940695854813104 0.299289344162587 -0.7244722900365234 0.05670637536251229 0.2456583729404863
 0.32200214023741075 0.23940695854812116 0.32200214023743856 0.23940695854818544 0.05670637536251221 0.24565837294048617 0.2992893441627101 -0.7244722900364199
64500000.0 0.27363171457352287 -0.7292830625941011 0.07880374640763119 0.2515543667592225 0.3237822695093714 0.23886434791749506 0.32378226950938355 0.23886434791754613
 0.07880374640763113 0.2515543667592224 0.2736317145736836 -0.7292830625939818 0.32378226950938355 0.23886434791755604 0.32378226950941197 0.23886434791761077
 0.3237822695093712 0.23886434791749495 0.32378226950938355 0.23886434791755604 0.2938402682948691 -0.7248323906944295 0.058595192686284624 0.247103694859545
 0.32378226950938327 0.23886434791754593 0.3237822695094118 0.2388643479176106 0.0585951926862846 0.2471036948595449 0.29384026829499293 -0.7248323906943264
65000000.0 0.26815340577761954 -0.7294571078726257 0.08076541611228333 0.2528288694930652 0.3255405890549965 0.23831411918983686 0.32554058905500893 0.23831411918988826
 0.08076541611228334 0.25282886949306516 0.2681534057777809 -0.7294571078725066 0.3255405890550091 0.23831411918989814 0.32554058905503785 0.23831411918995307
 0.32554058905499617 0.23831411918983672 0.3255405890550091 0.2383141191898982 0.28842803068332235 -0.725152032375423 0.06049079120657989 0.2485237939958566
 0.3255405890550088 0.2383141191898881 0.3255405890550377 0.23831411918995296 0.06049079120657987 0.2485237939958565 0.2884280306834468 -0.7251520323753199
65500000.0 0.2627145101128391 -0.7295914199016366 0.08273080420785818 0.25407817178492015 0.32727734283959836 0.23775662405841544 0.3272773428396114 0.23775662405846715
 0.08273080420785815 0.2540781717849201 0.26271451011300145 -0.7295914199015175 0.3272773428396116 0.2377566240584773 0.3272773428396409 0.2377566240585323
 0.32727734283959825 0.23775662405841538 0.32727734283961163 0.23775662405847722 0.2830526200234216 -0.7254320276770498 0.06239269429727515 0.24991877956032774
 0.3272773428396112 0.23775662405846704 0.3272773428396406 0.2377566240585322 0.06239269429727509 0.24991877956032765 0.2830526200235467 -0.7254320276769468
66000000.0 0.25731497902323786 -0.7296868448780857 0.08469947093709618 0.25530243748403825 0.3289927750197796 0.23719220369708205 0.3289927750197928 0.23719220369713398
 0.08469947093709615 0.25530243748403814 0.257314979023401 -0.7296868448779671 0.328992775019793 0.2371922036971441 0.3289927750198229 0.2371922036971994
 0.32899277501977936 0.2371922036970819 0.32899277501979324 0.2371922036971441 0.2777140152240044 -0.7256731766282926 0.06430043473632893 0.25128876923423904
 0.3289927750197927 0.2371922036971339 0.3289927750198226 0.2371922036971992 0.06430043473632886 0.25128876923423893 0.2777140152241305 -0.7256731766281896
66500000.0 0.25195475400841777 -0.7297442152994025 0.08667098648845253 0.2565018372627842 0.33068712975151077 0.2366211890183683 0.3306871297515246 0.23662118901842064
 0.08667098648845252 0.256501837262784 0.2519547540085815 -0.7297442152992843 0.3306871297515248 0.23662118901843068 0.330687129751555 0.23662118901848617
 0.33068712975151054 0.2366211890183681 0.3306871297515249 0.2366211890184306 0.27241218578004195 -0.7258762668018061 0.0662135547168273 0.25263388876518167
 0.33068712975152437 0.2366211890184204 0.33068712975155484 0.23662118901848597 0.06621355471682727 0.25263388876518156 0.272412185780169 -0.7258762668017035
67000000.0 0.24663376702383563 -0.7297643500888146 0.08864493095726793 0.25767654823291364 0.3323606510093934 0.23604390092801034 0.3323606510094076 0.23604390092806288
 0.08864493095726789 0.25767654823291364 0.24663376702400058 -0.7297643500886964 0.33236065100940804 0.23604390092807323 0.3323606510094386 0.23604390092812874
 0.3323606510093932 0.2360439009280102 0.33236065100940815 0.2360439009280732 0.2671470921341992 -0.7260420734291134 0.06813160584690367 0.25395427157320655
 0.33236065100940737 0.23604390092806268 0.3323606510094384 0.2360439009281286 0.06813160584690361 0.25395427157320644 0.2671470921343267 -0.7260420734290111
67500000.0 0.2413519408691147 -0.7297480547241574 0.090620894297551 0.25882675357288415 0.3340135824166118 0.23546065057569718 0.3340135824166262 0.23546065057575008
 0.09062089429755102 0.25882675357288415 0.24135194086928047 -0.7297480547240395 0.3340135824166268 0.23546065057576038 0.3340135824166578 0.23546065057581617
 0.33401358241661155 0.23546065057569712 0.3340135824166269 0.2354606505757604 0.2619186860274917 -0.7261713595184716 0.07005414913917318 0.25525005836719233
 0.33401358241662604 0.23546065057574997 0.3340135824166575 0.23546065057581606 0.07005414913917314 0.2552500583671922 0.26191868602762003 -0.7261713595183691
68000000.0 0.23610918956465796 -0.7296961213698512 0.09259847626499107 0.25995264216613845 0.3356461670851196 0.23487173960191807 0.3356461670851344 0.23487173960197125
 0.09259847626499107 0.25995264216613834 0.23610918956482432 -0.7296961213697338 0.33564616708513506 0.23487173960198154 0.33564616708516654 0.23487173960203753
 0.33564616708511935 0.23487173960191796 0.33564616708513506 0.23487173960198152 0.2567269108393457 -0.72626487597514 0.07198075499030242 0.256521396771421
 0.3356461670851343 0.23487173960197105 0.33564616708516637 0.23487173960203733 0.07198075499030238 0.25652139677142094 0.25672691083947474 -0.7262648759750379
68500000.0 0.23090541871686993 -0.729609329011741 0.09457728635179177 0.2610544082502744 0.3372586474656127 0.23427746038079567 0.33725864746562795 0.2342774603808491
 0.09457728635179175 0.26105440825027426 0.23090541871703707 -0.7296093290116237 0.3372586474656286 0.2342774603808595 0.3372586474656605 0.2342774603809156
 0.3372586474656125 0.2342774603807956 0.33725864746562867 0.23427746038085948 0.25157170191735034 -0.7263233617238021 0.07391100315131019 0.25776844096232937
 0.33725864746562784 0.23427746038084904 0.33725864746566026 0.2342774603809155 0.07391100315131013 0.25776844096232926 0.25157170191748013 -0.7263233617237
69000000.0 0.22574052587227642 -0.7294884435945108 0.09655694371389563 0.2621322510770069 0.33885126520685693 0.2336780962588153 0.33885126520687253 0.23367809625886896
 0.0965569437138956 0.26213225107700683 0.22574052587244442 -0.7294884435943938 0.3388512652068733 0.23367809625887945 0.3388512652069056 0.23367809625893562
 0.33885126520685666 0.23367809625881522 0.3388512652068733 0.23367809625887942 0.24645298689699613 -0.7263475438328989 0.07584448268917497 0.2589913513153888
 0.33885126520687225 0.23367809625886873 0.3388512652069053 0.23367809625893543 0.07584448268917486 0.2589913513153887 0.2464529868971263 -0.7263475438327971
69500000.0 0.22061440086083328 -0.7293342181614085 0.0985370770911453 0.2631863745828056 0.34042426102395273 0.23307392178936567 0.34042426102396883 0.23307392178941977
 0.09853707709114536 0.2631863745828055 0.22061440086100217 -0.7293342181612921 0.3404242610239697 0.23307392178943012 0.3404242610240025 0.2330739217894866
 0.3404242610239527 0.2330739217893656 0.34042426102396994 0.2330739217894301 0.24137068601167688 -0.7263381376406561 0.07778079194030069 0.26019029406204697
 0.3404242610239688 0.23307392178941955 0.3404242610240023 0.23307392178948647 0.07778079194030067 0.26019029406204686 0.24137068601180814 -0.7263381376405543
70000000.0 0.21552692612870494 -0.7291473929960187 0.10051732472090401 0.2642169870700851 0.3419778745751372 0.23246520296303191 0.3419778745751535 0.2324652029630861
 0.10051732472090397 0.26421698707008495 0.21552692612887467 -0.7291473929959025 0.3419778745751545 0.23246520296309664 0.3419778745751876 0.2324652029631532
 0.34197787457513695 0.23246520296303175 0.34197787457515466 0.23246520296309664 0.2363247123932337 -0.7262958468825951 0.07971953845637417 0.261365440956655
 0.3419778745751533 0.2324652029630859 0.3419778745751875 0.23246520296315304 0.07971953845637411 0.2613654409566549 0.23632471239336547 -0.7262958468824934
70500000.0 0.21047797706079238 -0.7289286957658492 0.10249733424563444 0.2652243008988102 0.3435123443467276 0.23185219743358543 0.3435123443467445 0.2318521974336399
 0.10249733424563441 0.2652243008988101 0.2104779770609626 -0.728928695765733 0.3435123443467453 0.23185219743365046 0.343512344346779 0.23185219743370716
 0.3435123443467274 0.23185219743358537 0.3435123443467455 0.23185219743365054 0.2313149723633045 -0.7262213638203309 0.08166033894312107 0.26251696895328575
 0.3435123443467442 0.2318521974336398 0.34351234434677874 0.23185219743370702 0.08166033894312094 0.2625169689532855 0.23131497236343698 -0.7262213638202294
71000000.0 0.20546742229328246 -0.7286788416675011 0.10447676261491674 0.2662085321883674 0.3450279075458409 0.23123515473963369 0.34502790754585805 0.23123515473968848
 0.10447676261491672 0.2662085321883673 0.20546742229345338 -0.7286788416673853 0.34502790754585916 0.23123515473969905 0.3450279075458931 0.2312351547397559
 0.3450279075458407 0.23123515473963363 0.34502790754585927 0.23123515473969897 0.22634136571574429 -0.7261153693714797 0.08360281919245367 0.26364505989233966
 0.3450279075458579 0.23123515473968834 0.34502790754589285 0.23123515473975567 0.08360281919245366 0.2636450598923396 0.22634136571587754 -0.7261153693713783
71500000.0 0.20049512401648312 -0.7283985335732115 0.10645527598236046 0.2671699005295466 0.34652480000051794 0.23061431652190023 0.3465248000005354 0.23061431652195524
 0.1064552759823605 0.26716990052954653 0.20049512401665504 -0.7283985335730961 0.34652480000053676 0.23061431652196587 0.3465248000005711 0.2306143165220228
 0.3465248000005178 0.23061431652190015 0.34652480000053687 0.23061431652196593 0.22140378599036603 -0.7259785332404954 0.08554661400847648 0.2647499001968241
 0.34652480000053537 0.2306143165219551 0.34652480000057084 0.23061431652202277 0.08554661400847641 0.26474990019682404 0.2214037859904998 -0.7259785332403942
72000000.0 0.19556093826820767 -0.728088462178567 0.1084325495978482 0.268108628706468 0.3480032560669113 0.22998991673611816 0.34800325606692917 0.2299899167361733
 0.10843254959784819 0.26810862870646796 0.1955609382683801 -0.728088462178452 0.34800325606693056 0.22998991673618402 0.3480032560669654 0.2299899167362411
 0.3480032560669111 0.22998991673611816 0.3480032560669308 0.22998991673618416 0.21650212073825392 -0.7258115140502845 0.08749136712780059 0.26583168057817935
 0.34800325606692917 0.22998991673617325 0.3480032560669652 0.229989916736241 0.08749136712780053 0.2658316805781793 0.21650212073838826 -0.7258115140501837
72500000.0 0.19066471521795775 -0.7277493061511963 0.11040826769552559 0.26902494242828007 0.34946350854319685 0.22936218186152768 0.3494635085432153 0.22936218186158316
 0.11040826769552557 0.26902494242827996 0.19066471521813108 -0.7277493061510815 0.3494635085432166 0.22936218186159393 0.3494635085432519 0.22936218186165114
 0.3494635085431967 0.22936218186152757 0.34946350854321667 0.2293621818615939 0.2116362517788851 -0.725614959474441 0.0894367311345968 0.2668905957515183
 0.3494635085432151 0.22936218186158297 0.3494635085432517 0.22936218186165103 0.08943673113459683 0.26689059575151824 0.21163625177902043 -0.7256149594743404
73000000.0 0.18580629944216293 -0.7273817322802693 0.11238212337793585 0.2699190700704512 0.3509057885898886 0.2287313311049796 0.3509057885899073 0.22873133110503532
 0.1123821233779358 0.26991907007045113 0.18580629944233698 -0.7273817322801547 0.35090578858990873 0.22873133110504615 0.35090578858994437 0.2287313311051034
 0.3509057885898883 0.2287313311049795 0.3509057885899088 0.228731331105046 0.20680605544929992 -0.7253895063699635 0.09138236737079754 0.26792684416013884
 0.3509057885899071 0.22873133110503507 0.35090578858994426 0.22873133110510327 0.09138236737079747 0.2679268441601388 0.20680605544943592 -0.7253895063698629
73500000.0 0.18098553019070995 -0.7269863956266288 0.11435381849667407 0.27079124242547004 0.3523303256562454 0.22809757660065091 0.3523303256562645 0.22809757660070687
 0.11435381849667406 0.27079124242546987 0.18098553019088479 -0.7269863956265146 0.35233032565626615 0.22809757660071775 0.35233032565630207 0.22809757660077518
 0.35233032565624506 0.2280975766006507 0.3523303256562661 0.22809757660071767 0.20201140284554062 -0.7251357809103245 0.09332794584184179 0.26894062770915905
 0.35233032565626426 0.22809757660070668 0.3523303256563019 0.22809757660077512 0.0933279458418418 0.268940627709159 0.20201140284567734 -0.7251357809102239
74000000.0 0.17620224164500653 -0.7265639396734024 0.11632306352992144 0.27164169246276504 0.35373734741247276 0.22746112360539092 0.35373734741249235 0.2274611236054471
 0.11632306352992142 0.271641692462765 0.1762022416451821 -0.7265639396732883 0.35373734741249396 0.22746112360545798 0.35373734741253043 0.22746112360551554
 0.35373734741247254 0.22746112360539086 0.3537373474124941 0.227461123605458 0.1972521600565887 -0.724854398718765 0.0952731451183378 0.2699321515081215
 0.35373734741249224 0.22746112360544704 0.3537373474125302 0.22746112360551543 0.09527314511833775 0.2699321515081214 0.19725216005672588 -0.7248543987186647
74500000.0 0.17145626316781093 -0.7261149964769408 0.11828957745719927 0.27247065509765167 0.3551270796874311 0.22682217068971786 0.35512707968745105 0.22682217068977414
 0.11828957745719923 0.2724706550976516 0.17145626316798682 -0.726114996476827 0.3551270796874528 0.2268221706897851 0.3551270796874896 0.22682217068984278
 0.3551270796874309 0.22682217068971788 0.3551270796874528 0.22682217068978514 0.19252818839100938 -0.7245459650017011 0.09721765223399922 0.2709016236224059
 0.3551270796874509 0.2268221706897741 0.3551270796874894 0.22682217068984264 0.09721765223399913 0.2709016236224058 0.19252818839114705 -0.7245459650016013
75000000.0 0.16674741954505043 -0.7256401868179516 0.12025308763166695 0.2732783669691092 0.356499746411577 0.2261809099244955 0.35649974641159726 0.22618090992455203
 0.1202530876316669 0.27327836696910907 0.16674741954522723 -0.7256401868178384 0.35649974641159915 0.22618090992456308 0.35649974641163645 0.22618090992462073
 0.3564997464115767 0.22618090992449544 0.35649974641159926 0.22618090992456305 0.1878393445965171 -0.7242110746821347 0.09916116258019865 0.27184925483328576
 0.3564997464115971 0.2261809099245519 0.35649974641163623 0.22618090992462064 0.09916116258019862 0.27184925483328565 0.1878393445966553 -0.7242110746820349
75500000.0 0.16207553121985466 -0.7251401203526885 0.12221332965026953 0.2740650662261902 0.3578555695648729 0.22553752706332442 0.3578555695648937 0.2255375270633812
 0.12221332965026953 0.2740650662261901 0.16207553122003207 -0.7251401203525755 0.3578555695648955 0.2255375270633921 0.3578555695649332 0.22553752706345
 0.3578555695648727 0.22553752706332428 0.35785556956489567 0.2255375270633922 0.183185481072662 -0.7238503125329651 0.10110337979746055 0.2727752584064603
 0.3578555695648935 0.22553752706338098 0.35785556956493303 0.22553752706344987 0.10110337979746052 0.2727752584064602 0.18318548107280103 -0.7238503125328655
76000000.0 0.15744041451901622 -0.7246153957640784 0.12417004722202683 0.27483099232286157 0.3591947691294129 0.22489220172068458 0.3591947691294341 0.2248922017207415
 0.12417004722202678 0.27483099232286134 0.15744041451919438 -0.7246153957639659 0.359194769129436 0.22489220172075255 0.35919476912947407 0.2248922017208105
 0.35919476912941267 0.2248922017206845 0.35919476912943615 0.22489220172075264 0.17856644607683755 -0.7234642533101131 0.10304401566420378 0.2736798498688896
 0.35919476912943377 0.22489220172074129 0.35919476912947385 0.2248922017208104 0.1030440156642037 0.27367984986888944 0.17856644607697705 -0.7234642533100135
76500000.0 0.1528418818720907 -0.7240666009126722 0.1261229920347368 0.27557638582107524 0.36051756304652016 0.22424510754587546 0.36051756304654164 0.2242451075459327
 0.12612299203473668 0.27557638582107513 0.1528418818722695 -0.7240666009125597 0.36051756304654375 0.22424510754594382 0.36051756304658217 0.22424510754600185
 0.36051756304651983 0.22424510754587546 0.36051756304654375 0.2242451075459439 0.17398208392380013 -0.7230534618853626 0.10498278998302553 0.2745632467937593
 0.3605175630465413 0.2242451075459325 0.36051756304658195 0.22424510754600174 0.10498278998302543 0.27456324679375915 0.17398208392394032 -0.7230534618852633
77000000.0 0.14827974202334107 -0.723494312987307 0.12807192362035486 0.27630148820186595 0.36182416717808524 0.22359641239279862 0.3618241671781071 0.22359641239285588
 0.12807192362035486 0.2763014882018659 0.14827974202352087 -0.723494312987195 0.3618241671781093 0.2235964123928671 0.36182416717814825 0.22359641239292521
 0.361824167178085 0.2235964123927985 0.36182416717810933 0.22359641239286715 0.1694322351788867 -0.7226184933788435 0.10691943046480777 0.2754256685933959
 0.36182416717810695 0.22359641239285574 0.361824167178148 0.22359641239292516 0.10691943046480774 0.2754256685933958 0.16943223517902742 -0.7226184933787445
77500000.0 0.14375380023672837 -0.7228990986553839 0.13001660921929376 0.2770065416842732 0.36311479527192164 0.2229462784856343 0.3631147952719439 0.22294627848569182
 0.13001660921929378 0.27700654168427313 0.14375380023690865 -0.7228990986552721 0.36311479527194623 0.22294627848570306 0.3631147952719854 0.2229462784857612
 0.3631147952719214 0.22294627848563417 0.3631147952719463 0.22294627848570306 0.16491673684511213 -0.7221598932910753 0.1088536726109081 0.27626733631995776
 0.36311479527194374 0.22294627848569176 0.3631147952719852 0.22294627848576115 0.10885367261090802 0.27626733631995776 0.16491673684525357 -0.7221598932909762
78000000.0 0.13926385849413908 -0.7222815142126613 0.13195682364387426 0.2776917890518845 0.36438965893092534 0.2222948625804682 0.36438965893094816 0.22229486258052603
 0.13195682364387418 0.2776917890518845 0.13926385849431996 -0.7222815142125498 0.36438965893095043 0.22229486258053738 0.36438965893099023 0.22229486258059555
 0.36438965893092523 0.22229486258046827 0.3643896589309505 0.2222948625805373 0.1604354225443246 -0.7216781976345027 0.110785259593687 0.27708847247371965
 0.36438965893094794 0.2222948625805259 0.36438965893098985 0.22229486258059536 0.11078525959368693 0.2770884724737194 0.16043542254446647 -0.7216781976344042
78500000.0 0.13480971568704764 -0.7216421057324796 0.13389234914114595 0.27835747348679774 0.36564896758583476 0.221642316122922 0.36564896758585785 0.22164231612297988
 0.13389234914114603 0.2783574734867977 0.13480971568722905 -0.7216421057323685 0.3656489675858603 0.2216423161229911 0.36564896758590043 0.22164231612304938
 0.3656489675858346 0.22164231612292185 0.3656489675858603 0.22164231612299107 0.15598812269258258 -0.7211739330644586 0.1127139421356092 0.27788930081877006
 0.36564896758585763 0.22164231612297966 0.36564896758590015 0.2216423161230492 0.1127139421356091 0.2778893008187699 0.15598812269272497 -0.7211739330643602
79000000.0 0.13039116780179066 -0.7209814092143332 0.13582297525528284 0.27900383841080045 0.3668929284713942 0.22098878540184838 0.3668929284714175 0.22098878540190642
 0.13582297525528284 0.27900383841080034 0.13039116780197288 -0.7209814092142225 0.3668929284714202 0.22098878540191777 0.3668929284714606 0.2209887854019761
 0.3668929284713939 0.22098878540184824 0.3668929284714203 0.22098878540191771 0.1515746646699297 -0.7206476170094851 0.11463947838714196 0.2786700462059455
 0.36689292847141736 0.22098878540190628 0.36689292847146043 0.22098878540197608 0.11463947838714188 0.27867004620594543 0.15157466467007277 -0.7206476170093867
79500000.0 0.12600800809864154 -0.7202999507317118 0.13774849868974517 0.2796311273335681 0.36812174660573704 0.22033441169915494 0.36812174660576097 0.2203344116992132
 0.13774849868974515 0.27963112733356793 0.12600800809882412 -0.7202999507316015 0.36812174660576347 0.2203344116992244 0.36812174660580443 0.22033441169928292
 0.3681217466057367 0.22033441169915477 0.36812174660576363 0.22033441169922446 0.1471948729847194 -0.7200997578009658 0.11656163380366528 0.27943093440281536
 0.36812174660576075 0.22033441169921303 0.3681217466058043 0.2203344116992828 0.11656163380366528 0.2794309344028153 0.14719487298486306 -0.7200997578008679
80000000.0 0.1216600272848547 -0.7195982465791391 0.13966872316938966 0.2802395837076789 0.3693356247728074 0.21967933143581417 0.3693356247728318 0.21967933143587257
 0.13966872316938966 0.2802395837076787 0.12166002728503818 -0.7195982465790292 0.36933562477283444 0.21967933143588397 0.36933562477287585 0.21967933143594243
 0.3693356247728073 0.21967933143581403 0.36933562477283455 0.219679331435884 0.14284856943265112 -0.7195308548020082 0.11848018102159132 0.2801721919305413
 0.36933562477283155 0.21967933143587234 0.3693356247728756 0.21967933143594232 0.11848018102159127 0.28017219193054105 0.14284856943279525 -0.7195308548019105
80500000.0 0.1173470136818582 -0.7188768034183439 0.14158345930269728 0.2808294507902525 0.3705347635076515 0.21902367631413072 0.3705347635076761 0.21902367631418931
 0.1415834593026972 0.28082945079025234 0.11734701368204223 -0.718876803418234 0.3705347635076789 0.21902367631420072 0.3705347635077205 0.21902367631425934
 0.37053476350765135 0.21902367631413058 0.370534763507679 0.2190236763142007 0.1385355732506688 -0.7189413985355295 0.12039489973388469 0.2808940459074312
 0.37053476350767595 0.21902367631418931 0.37053476350772047 0.21902367631425934 0.12039489973388466 0.2808940459074312 0.1385355732508137 -0.7189413985354316
81000000.0 0.11306875338675466 -0.7181361184234982 0.1434925244442755 0.2814009715110147 0.3717193610844136 0.21836757345632765 0.37171936108443854 0.21836757345638644
 0.1434925244442754 0.28140097151101456 0.1130687533869393 -0.7181361184233888 0.3717193610844413 0.21836757345639787 0.37171936108448345 0.2183675734564565
 0.3717193610844132 0.21836757345632746 0.3717193610844414 0.21836757345639776 0.1342557012658675 -0.7183318708114999 0.12230557656516063 0.2815967238990093
 0.3717193610844383 0.21836757345638633 0.3717193610844832 0.21836757345645638 0.1223055765651606 0.2815967238990092 0.13425570126601297 -0.718331870811402
81500000.0 0.10882503042829988 -0.7173766794254679 0.14539574255778567 0.2819543883465985 0.3728896135068854 0.2177111455395218 0.3728896135069109 0.2177111455395808
 0.14539574255778567 0.2819543883465984 0.10882503042848467 -0.7173766794253587 0.3728896135069138 0.21771114553959217 0.37288961350695626 0.21771114553965082
 0.37288961350688515 0.2177111455395217 0.3728896135069139 0.21771114553959206 0.13000876803955486 -0.7177027448533017 0.12421200494652836 0.28228045377442534
 0.3728896135069107 0.21771114553958057 0.372889613506956 0.21771114553965065 0.12421200494652833 0.2822804537744252 0.13000876803970085 -0.7177027448532045
82000000.0 0.10461562691751107 -0.7165989650550182 0.14729294407943194 0.28248994320088755 0.3740457145014561 0.21705451092715328 0.3740457145014819 0.2170545109272125
 0.14729294407943197 0.28248994320088744 0.10461562691769674 -0.7165989650549093 0.3740457145014848 0.21705451092722372 0.37404571450152774 0.2170545109272827
 0.37404571450145574 0.21705451092715317 0.3740457145014849 0.21705451092722378 0.12579458600660273 -0.7170544854231646 0.1261139849903379 0.2829454635690272
 0.3740457145014817 0.2170545109272123 0.37404571450152757 0.21705451092728256 0.12611398499033788 0.2829454635690271 0.12579458600674948 -0.7170544854230676
82500000.0 0.10044032319306907 -0.7158034448849278 0.14918396578213947 0.2830078772912209 0.3751878555123226 0.21639778379694244 0.37518785551234884 0.21639778379700178
 0.1491839657821395 0.2830078772912208 0.10044032319325527 -0.7158034448848194 0.37518785551235195 0.21639778379701313 0.37518785551239514 0.21639778379707192
 0.37518785551232237 0.21639778379694224 0.375187855512352 0.21639778379701308 0.12161296561022841 -0.7163875489466398 0.128011323364978 0.283591981352926
 0.3751878555123486 0.2163977837970015 0.375187855512395 0.21639778379707184 0.12801132336497786 0.2835919813529259 0.12161296561037552 -0.7163875489465428
83000000.0 0.09629889796165264 -0.7149905795709645 0.15106865064054448 0.28350843104026874 0.37631622569882794 0.21574107426543773 0.37631622569885453 0.2157410742654972
 0.15106865064054448 0.2835084310402687 0.09629889796183938 -0.7149905795708562 0.3763162256988578 0.21574107426550856 0.3763162256989014 0.2157410742655675
 0.3763162256988278 0.21574107426543762 0.3763162256988579 0.21574107426550854 0.11746371543233097 -0.7157023836360805 0.12990383316986376 0.28422023510537764
 0.3763162256988544 0.21574107426549713 0.37631622569890116 0.21574107426556743 0.12990383316986368 0.2842202351053776 0.11746371543247859 -0.7157023836359834
83500000.0 0.0921911284333605 -0.7141608209916774 0.15294684769690323 0.2839918439734012 0.377431011934794 0.21508448850922912 0.3774310119348209 0.2150844885092887
 0.15294684769690317 0.28399184397340116 0.0921911284335481 -0.7141608209915696 0.37743101193482415 0.21508448850930023 0.3774310119348682 0.21508448850935916
 0.3774310119347938 0.21508448850922907 0.37743101193482426 0.21508448850930023 0.11334664231951828 -0.714999429613099 0.13179133381074312 0.2848304525948158
 0.37743101193482076 0.21508448850928855 0.377431011934868 0.21508448850935902 0.13179133381074307 0.2848304525948157 0.11334664231966636 -0.7149994296130027
84000000.0 0.08811679045236209 -0.7133146123869737 0.15481841192802634 0.2844583546213719 0.37853239880973094 0.21442812888289287 0.37853239880975853 0.21442812888295257
 0.15481841192802628 0.2844583546213718 0.08811679045255019 -0.7133146123868662 0.3785323988097618 0.21442812888296414 0.3785323988098062 0.2144281288830231
 0.3785323988097309 0.21442812888289278 0.37853239880976197 0.21442812888296411 0.10926155150494007 -0.7142791190299742 0.13367365087544603 0.28542286126436556
 0.37853239880975825 0.2144281288829524 0.37853239880980594 0.21442812888302293 0.13367365087544597 0.2854228612643654 0.10926155150508851 -0.7142791190298781
84500000.0 0.08407565862291203 -0.7124523884954334 0.15668320411332945 0.2849082004281402 0.3796205686318041 0.21377209403373962 0.3796205686318319 0.21377209403379951
 0.15668320411332942 0.2849082004281401 0.08407565862310044 -0.7124523884953262 0.3796205686318353 0.21377209403381095 0.37962056863188004 0.21377209403386999
 0.3796205686318038 0.21377209403373948 0.3796205686318354 0.21377209403381087 0.10520824672605365 -0.7135418761899762 0.13555061601018523 0.28599768812267584
 0.3796205686318317 0.2137720940337993 0.37962056863187976 0.2137720940338698 0.13555061601018514 0.28599768812267573 0.10520824672620278 -0.7135418761898801
85000000.0 0.08006750643086744 -0.711574575690341 0.15854109070409056 0.28534161766366156 0.3806957014324452 0.21311647901343375 0.38069570143247333 0.21311647901349362
 0.1585410907040905 0.2853416176636614 0.08006750643105653 -0.7115745756902341 0.3806957014324769 0.21311647901350525 0.38069570143252207 0.2131164790135643
 0.3806957014324449 0.2131164790134336 0.38069570143247694 0.21311647901350528 0.10118653033843653 -0.712788117666593 0.13742206679651878 0.28655515963990685
 0.3806957014324731 0.2131164790134935 0.3806957014325218 0.21311647901356423 0.1374220667965188 0.2865551596399068 0.10118653033858623 -0.7127881176664974
85500000.0 0.07609210636084011 -0.7106815921143951 0.16039194369399187 0.2857588413414771 0.3817579749725077 0.21246137538655382 0.38175797497253616 0.212461375386614
 0.1603919436939918 0.28575884134147705 0.07609210636102957 -0.7106815921142884 0.3817579749725399 0.21246137538662557 0.38175797497258523 0.21246137538668466
 0.38175797497250746 0.21246137538655385 0.38175797497253994 0.21246137538662557 0.09719620342575949 -0.7120182524216372 0.13928784662906982 0.28709550164871245
 0.38175797497253605 0.21246137538661392 0.38175797497258507 0.21246137538668458 0.13928784662906976 0.2870955016487124 0.0971962034259098 -0.7120182524215415
86000000.0 0.07214923000910722 -0.7097738478130742 0.16223564049102102 0.28616010514093926 0.38280756474985894 0.2118068713361634 0.38280756474988803 0.2118068713362237
 0.162235640491021 0.28616010514093904 0.07214923000929711 -0.709773847812968 0.3828075647498915 0.21180687133623516 0.38280756474993755 0.21180687133629433
 0.3828075647498588 0.21180687133616335 0.38280756474989175 0.21180687133623533 0.09323706590603119 -0.7112326819222046 0.14114780459409446 0.2876189392500628
 0.38280756474988775 0.2118068713362235 0.38280756474993727 0.21180687133629428 0.14114780459409434 0.28761893925006254 0.09323706590618182 -0.7112326819221092
86500000.0 0.0682386481924108 -0.7088517448666319 0.16407206379079775 0.28654564133390986 0.38384464400831825 0.2111530517664582 0.38384464400834784 0.21115305176651875
 0.1640720637907977 0.2865456413339097 0.06823864819260136 -0.7088517448665261 0.38384464400835155 0.2111530517665301 0.3838446440083978 0.21115305176658947
 0.38384464400831814 0.21115305176645818 0.38384464400835155 0.2111530517665302 0.08930891663422202 -0.7104318002564803 0.14300179534898358 0.28812569672375127
 0.38384464400834745 0.21115305176651852 0.3838446440083975 0.2111530517665893 0.14300179534898344 0.28812569672375105 0.08930891663437335 -0.7104318002563851
87000000.0 0.06436013105276243 -0.7079156775207 0.16590110145138723 0.28691568071577533 0.3848693837478473 0.21049999840256048 0.38486938374787694 0.21049999840262087
 0.16590110145138723 0.2869156807157752 0.06436013105295357 -0.7079156775205944 0.3848693837478808 0.21049999840263253 0.38486938374792734 0.21049999840269168
 0.3848693837478472 0.2104999984025603 0.38486938374788093 0.21049999840263253 0.0854115535013704 -0.7096159942483672 0.14484967900277662 0.28861599744343547
 0.3848693837478767 0.2104999984026207 0.3848693837479271 0.21049999840269157 0.1448496790027766 0.28861599744343536 0.08541155350152181 -0.7096159942482722
87500000.0 0.060513448158377295 -0.7069660323154779 0.16772264636965434 0.28727045254062533 0.3858819527359057 0.20984778988752564 0.38588195273593584 0.20984778988758615
 0.16772264636965425 0.2872704525406252 0.06051344815856922 -0.7069660323153727 0.38588195273593967 0.209847789887598 0.3858819527359868 0.20984778988765698
 0.3858819527359054 0.20984778988752556 0.3858819527359398 0.209847789887598 0.08154477353027202 -0.7087856435709249 0.14669132099775692 0.28909006379606533
 0.38588195273593556 0.20984778988758598 0.38588195273598647 0.20984778988765695 0.14669132099775684 0.28909006379606517 0.0815447735304239 -0.7087856435708304
88000000.0 0.05669836860084497 -0.7060031882134964 0.16953659635920967 0.2876101844604413 0.38688251751989367 0.20919650187662778 0.38688251751992414 0.20919650187668865
 0.16953659635920967 0.2876101844604412 0.056698368601037136 -0.7060031882133915 0.3868825175199282 0.20919650187670016 0.38688251751997554 0.20919650187675948
 0.3868825175198934 0.20919650187662772 0.38688251751992825 0.20919650187670014 0.07770837296785417 -0.7079411208586124 0.14852659199219756 0.28954811710555006
 0.38688251751992386 0.2091965018766884 0.38688251751997527 0.20919650187675937 0.14852659199219748 0.28954811710555 0.07770837296800699 -0.7079411208585177
88500000.0 0.05291466108865565 -0.7050275167259319 0.17134285402999053 0.28793510246815274 0.3878712424405974 0.20854620712899086 0.38787124244062826 0.20854620712905156
 0.17134285402999055 0.2879351024681527 0.05291466108884835 -0.7050275167258272 0.38787124244063226 0.2085462071290634 0.38787124244067994 0.2085462071291225
 0.3878712424405971 0.20854620712899072 0.38787124244063226 0.20854620712906338 0.07390214737432739 -0.7070827918183128 0.15035536774431618 0.28999037756052665
 0.387871242440628 0.20854620712905145 0.3878712424406798 0.20854620712912245 0.15035536774431607 0.2899903775605266 0.07390214737448035 -0.7070827918182185
89000000.0 0.049162094037187756 -0.7040393820374647 0.1731413266695165 0.28824543084441473 0.38884828964656787 0.20789697559662737 0.3888482896465992 0.20789697559668835
 0.17314132666951648 0.2882454308444147 0.04916209403738104 -0.7040393820373605 0.38884828964660334 0.20789697559669998 0.38884828964665136 0.2078969755967592
 0.3888482896465676 0.2078969755966273 0.38884828964660334 0.20789697559669998 0.07012589170920557 -0.7062110153391434 0.15217752899749573 0.2904170641460863
 0.3888482896465989 0.2078969755966882 0.3888482896466511 0.20789697559675915 0.15217752899749568 0.29041706414608626 0.07012589170935911 -0.7062110153390492
89500000.0 0.04544043565526247 -0.7030391411296671 0.17493192612585462 0.288541392107968 0.38981381910936097 0.20724887451095292 0.38981381910939267 0.207248874511014
 0.1749319261258546 0.2885413921079679 0.04544043565545604 -0.703039141129563 0.38981381910939683 0.2072488745110257 0.3898138191094452 0.20724887451108495
 0.38981381910936075 0.2072488745109528 0.38981381910939683 0.2072488745110256 0.06637940041429358 -0.705326143601033 0.15399296136682036 0.2908283945793265
 0.38981381910939245 0.20724887451101384 0.38981381910944485 0.20724887451108479 0.1539929613668203 0.29082839457932635 0.06637940041444758 -0.7053261436009389
90000000.0 0.04174945402836991 -0.7020271439029099 0.17671456869232507 0.28882320696944785 0.39076798863957163 0.20660196846683548 0.3907679886396035 0.20660196846689657
 0.17671456869232505 0.28882320696944774 0.04174945402856376 -0.7020271439028061 0.39076798863960777 0.2066019684669083 0.3907679886396565 0.20660196846696746
 0.39076798863957135 0.20660196846683543 0.39076798863960777 0.20660196846690826 0.06266246749372027 -0.7044285221820635 0.15580155522697173 0.2912245852485945
 0.3907679886396033 0.20660196846689646 0.3907679886396561 0.2066019684669674 0.1558015552269716 0.29122458524859435 0.06266246749387461 -0.7044285221819697
90500000.0 0.038088917198666146 -0.7010037332967815 0.17848917499397227 0.2890910942885067 0.39171095390359917 0.2059563195042427 0.3917109539036314 0.20595631950430407
 0.17848917499397227 0.28909109428850666 0.03808891719886094 -0.701003733296678 0.3917109539036361 0.20595631950431578 0.39171095390368504 0.2059563195043751
 0.3917109539035989 0.20595631950424267 0.391710953903636 0.2059563195043157 0.058974886591106335 -0.7035184901645738 0.15760320560152896 0.291605851156292
 0.39171095390363125 0.20595631950430388 0.3917109539036848 0.2059563195043751 0.15760320560152896 0.2916058511562919 0.05897488659126138 -0.7035184901644801
91000000.0 0.034458593241840536 -0.6999692454090118 0.1802556698758248 0.28934527103412355 0.39264286844108526 0.20531198718755073 0.3926428684411179 0.20531198718761193
 0.18025566987582484 0.2893452710341235 0.03445859324203586 -0.6999692454089086 0.3926428684411226 0.20531198718762392 0.3926428684411718 0.20531198718768304
 0.392642868441085 0.20531198718755064 0.3926428684411226 0.2053119871876238 0.05531645106395572 -0.7025963802400123 0.1593978120537069 0.2919724058651169
 0.3926428684411176 0.20531198718761187 0.3926428684411716 0.205311987187683 0.15939781205370687 0.2919724058651169 0.05531645106411074 -0.7025963802399191
91500000.0 0.030858250340944304 -0.6989240096128965 0.18201398229296292 0.2895859522479745 0.3935638836829639 0.20466902868256873 0.39356388368299694 0.20466902868263007
 0.18201398229296287 0.2895859522479744 0.03085825034113974 -0.6989240096127938 0.39356388368300144 0.20466902868264192 0.3935638836830512 0.204669028682701
 0.3935638836829637 0.20466902868256867 0.39356388368300155 0.2046690286826419 0.051686954055337735 -0.7016625188125455 0.16118527857856643 0.2923244614476164
 0.39356388368299666 0.20466902868262996 0.393563883683051 0.20466902868270107 0.16118527857856632 0.2923244614476163 0.05168695405549338 -0.7016625188124525
92000000.0 0.02728765685727832 -0.6978683486732163 0.18376404520240788 0.2898133510107436 0.3944741489700739 0.2040274988313452 0.3944741489701073 0.20402749883140672
 0.18376404520240774 0.2898133510107434 0.027287656857474144 -0.6978683486731142 0.3944741489701118 0.2040274988314184 0.3944741489701622 0.2040274988314777
 0.39447414897007355 0.20402749883134516 0.39447414897011207 0.20402749883141844 0.0480861885629568 -0.700717226101412 0.1629655134967261 0.2926622284389321
 0.3944741489701072 0.20402749883140658 0.39447414897016186 0.2040274988314776 0.16296551349672606 0.29266222843893197 0.048086188563113134 -0.7007172261013193
92500000.0 0.023746581398425594 -0.6968025788606507 0.1855057954568465 0.29002767841125454 0.3953738115722805 0.203387450224808 0.39537381157231416 0.20338745022486965
 0.1855057954568464 0.2900276784112544 0.02374658139862182 -0.6968025788605486 0.39537381157231893 0.2033874502248814 0.3953738115723693 0.20338745022494054
 0.39537381157228024 0.20338745022480798 0.39537381157231904 0.20338745022488136 0.044513947505667895 -0.6997608162420245 0.16473842934960112 0.2929859157926212
 0.39537381157231394 0.20338745022486948 0.39537381157236906 0.2033874502249405 0.1647384293496011 0.2929859157926211 0.04451394750582426 -0.6997608162419319
93000000.0 0.020234792883518912 -0.6957270100646836 0.18723917370019863 0.29022914351830964 0.3962630167080569 0.2027489332732979 0.3962630167080912 0.20274893327335963
 0.18723917370019857 0.29022914351830953 0.020234792883715953 -0.6957270100645817 0.39626301670809594 0.20274893327337143 0.39626301670814684 0.20274893327343074
 0.39626301670805675 0.20274893327329796 0.3962630167080961 0.20274893327337154 0.040970023787524755 -0.6987935973858177 0.16650394279618988 0.29329573083943705
 0.396263016708091 0.2027489332733595 0.3962630167081466 0.20274893327343058 0.16650394279618974 0.29329573083943683 0.040970023787681775 -0.6987935973857256
93500000.0 0.016752060605827103 -0.6946419459050024 0.18896412426503426 0.29041795335512455 0.39714190756448464 0.20211199627505091 0.39714190756451917 0.20211199627511264
 0.18896412426503426 0.29041795335512444 0.01675206060602451 -0.6946419459049008 0.3971419075645241 0.20211199627512447 0.39714190756457524 0.20211199627518367
 0.39714190756448453 0.20211199627505083 0.3971419075645242 0.20211199627512444 0.0374542103594297 -0.6978158717988452 0.1682619745114286 0.2935918792489602
 0.397141907564519 0.20211199627511256 0.39714190756457507 0.20211199627518364 0.1682619745114285 0.29359187924896013 0.03745421035958708 -0.6978158717987528
94000000.0 0.013298154292741008 -0.6935476838413892 0.19068059507184376 0.2905943128762503 0.39801062531762266 0.2014766854826828 0.3980106253176576 0.20147668548274464
 0.19068059507184376 0.2905943128762502 0.013298154292938586 -0.6935476838412884 0.3980106253176624 0.20147668548275632 0.39801062531771403 0.20147668548281558
 0.3980106253176224 0.20147668548268272 0.39801062531766246 0.20147668548275635 0.03396630027845082 -0.6968279359591192 0.1700124490861307 0.2938745649939729
 0.39801062531765724 0.2014766854827444 0.39801062531771364 0.2014766854828154 0.17001244908613058 0.29387456499397274 0.03396630027860861 -0.6968279359590274
94500000.0 0.009872844163245229 -0.6924445152821113 0.19238853753016155 0.2907584249468779 0.398869309153211 0.20084304516773077 0.3988693091532462 0.2008430451677927
 0.19238853753016147 0.29075842494687787 0.009872844163443535 -0.6924445152820101 0.39886930915325125 0.2008430451678046 0.3988693091533031 0.20084304516786378
 0.3988693091532108 0.2008430451677307 0.3988693091532513 0.2008430451678045 0.030506086764882954 -0.6958300806527071 0.17175529492852054 0.29414399031746663
 0.3988693091532461 0.20084304516779253 0.3988693091533029 0.2008430451678637 0.17175529492852049 0.29414399031746663 0.030506086765041216 -0.6958300806526154
95000000.0 0.006475900982948688 -0.6913327256908038 0.194087906441543 0.2909104903244255 0.39971809628766797 0.20021111768330438 0.3997180962877038 0.2002111176833664
 0.19408790644154292 0.29091049032442534 0.006475900983147309 -0.6913327256907031 0.3997180962877087 0.2002111176833783 0.399718096287761 0.20021111768343744
 0.3997180962876678 0.20021111768330435 0.3997180962877089 0.20021111768337824 0.027073363257111977 -0.694822591068574 0.17349044416737644 0.29440035570218853
 0.3997180962877036 0.20021111768336627 0.39971809628776084 0.20021111768343738 0.1734904441673763 0.2944003557021884 0.027073363257270795 -0.6948225910684825
95500000.0 0.0031070961167516814 -0.6902125946918645 0.19577865990438895 0.29105070764230667 0.4005571219893432 0.19958094352489533 0.4005571219893791 0.1995809435249573
 0.19577865990438886 0.29105070764230656 0.0031070961169506156 -0.6902125946917642 0.4005571219893842 0.1995809435249692 0.40055712198943666 0.1995809435250284
 0.400557121989343 0.19958094352489522 0.40055712198938437 0.19958094352496905 0.02366792346435103 -0.6938057468921847 0.17521783255678622 0.2946438598426196
 0.4005571219893789 0.19958094352495725 0.4005571219894365 0.19958094352502836 0.17521783255678614 0.29464385984261954 0.02366792346451041 -0.6938057468920932
96000000.0 -0.00023379842077583433 -0.6890843961743492 0.19746075922061493 0.2911792733957886 0.4013865195999935 0.19895256138939799 0.4013865196000299 0.19895256138946027
 0.19746075922061487 0.2911792733957884 -0.0002337984205764094 -0.6890843961742494 0.401386519600035 0.19895256138947187 0.401386519600088 0.1989525613895311
 0.4013865195999931 0.19895256138939782 0.40138651960003513 0.1989525613894718 0.020289561417310177 -0.6927798223978626 0.17693739938252526 0.29487469961929447
 0.40138651960002963 0.19895256138946 0.4013865196000876 0.19895256138953105 0.1769373993825251 0.29487469961929436 0.020289561417470073 -0.6927798223977714
96500000.0 -0.0035470099172324344 -0.6879483983943857 0.1991341688041544 0.29129638192984325 0.4022064205564515 0.1983260082323897 0.4022064205564882 0.19832600823245192
 0.19913416880415435 0.29129638192984314 -0.003547009917032467 -0.6879483983942861 0.4022064205564936 0.19832600823246377 0.40220642055654665 0.19832600823252294
 0.4022064205564513 0.19832600823238966 0.4022064205564936 0.19832600823246377 0.01693807151686261 -0.6917450865399148 0.17864908737005578 0.2950930700753653
 0.40220642055648803 0.1983260082324518 0.4022064205565465 0.19832600823252292 0.1786490873700556 0.29509307007536517 0.016938071517022788 -0.6917450865398239
97000000.0 -0.0068327649163714204 -0.686804864076105 0.20079885609129006 0.2914022254289086 0.40301695441245267 0.1977013193237178 0.4030169544124898 0.19770131932378007
 0.20079885609129003 0.29140222542890853 -0.006832764916171323 -0.6868048640760056 0.4030169544124951 0.19770131932379184 0.40301695441254876 0.197701319323851
 0.40301695441245255 0.19770131932371776 0.4030169544124952 0.1977013193237918 0.013613248580762212 -0.6907018030425242 0.18035284259415293 0.29529916439532067
 0.4030169544124896 0.19770131932377982 0.40301695441254837 0.19770131932385082 0.18035284259415274 0.2952991643953205 0.0136132485809225 -0.6907018030424337
97500000.0 -0.010091289174165678 -0.6856540505111037 0.2024547914527995 0.2914969939084656 0.40381824886059464 0.19707852830143985 0.40381824886063206 0.19707852830150213
 0.20245479145279946 0.29149699390846556 -0.010091289173964868 -0.6856540505110046 0.40381824886063766 0.19707852830151407 0.40381824886069134 0.19707852830157307
 0.4038182488605943 0.19707852830143982 0.40381824886063755 0.197078528301514 0.01031488788847775 -0.6896502304884164 0.1820486143901526 0.2954931738857714
 0.4038182488606319 0.1970785283015019 0.40381824886069106 0.19707852830157296 0.1820486143901526 0.2954931738857713 0.010314887888638316 -0.6896502304883263
98000000.0 -0.013322807616884744 -0.6844962096564402 0.20410194810790427 0.29158087520835485 0.40461042975440126 0.19645766722416438 0.40461042975443906 0.19645766722422683
 0.20410194810790414 0.29158087520835474 -0.013322807616683568 -0.6844962096563415 0.4046104297544446 0.19645766722423874 0.4046104297544988 0.19645766722429775
 0.40461042975440115 0.1964576672241645 0.4046104297544447 0.1964576672242387 0.007042785224192813 -0.6885906224063087 0.18373635526682336 0.29567528795821646
 0.4046104297544387 0.1964576672242266 0.40461042975449857 0.19645766722429767 0.1837363552668232 0.2956752879582163 0.007042785224353878 -0.6885906224062186
98500000.0 -0.016527544301121154 -0.6833315882311746 0.20574030204000862 0.2916540549877481 0.4053936211304669 0.1958387666218364 0.4053936211305049 0.19583876662189875
 0.20574030204000862 0.29165405498774793 -0.016527544300919694 -0.6833315882310764 0.4053936211305107 0.19583876662191066 0.405393621130565 0.19583876662196953
 0.4053936211304666 0.19583876662183627 0.4053936211305107 0.19583876662191063 0.0037967369180320985 -0.6875232273571424 0.18541602082085182 0.2958456941137086
 0.40539362113050464 0.19583876662189853 0.4053936211305648 0.1958387666219696 0.18541602082085176 0.2958456941137085 0.0037967369181934113 -0.6875232273570525
99000000.0 -0.019705722375702475 -0.6821604278114666 0.20736983191421252 0.2917167167216975 0.40616794523065525 0.19522185554500857 0.40616794523069366 0.195221855545071
 0.20736983191421232 0.2917167167216974 -0.019705722375500792 -0.6821604278113684 0.4061679452306994 0.19522185554508292 0.406167945230754 0.19522185554514188
 0.40616794523065497 0.19522185554500854 0.40616794523069943 0.19522185554508287 0.0005765398855639486 -0.6864482890191136 0.18708756965294238 0.2960045779293373
 0.4061679452306934 0.19522185554507093 0.40616794523075384 0.19522185554514185 0.18708756965294224 0.29600457792933726 0.0005765398857258058 -0.6864482890190237
99500000.0 -0.022857564045427724 -0.6809829649242299 0.20899051899658175 0.29176904169918866 0.4069335225243329 0.19460696161264587 0.4069335225243717 0.1946069616127085
 0.20899051899658155 0.29176904169918855 -0.02285756404522567 -0.6809829649241322 0.4069335225243773 0.19460696161272031 0.4069335225244324 0.1946069616127793
 0.4069335225243325 0.19460696161264585 0.4069335225243774 0.19460696161272012 -0.0026180083343687404 -0.6853660462715009 0.188750963285519 0.29615212304645216
 0.40693352252437126 0.1946069616127083 0.4069335225244321 0.1946069616127792 0.18875096328551888 0.2961521230464521 -0.0026180083342063135 -0.6853660462714112
100000000.0 -0.025983290536569975 -0.6797994311393685 0.2106023470751604 0.29181120902262236 0.40769047173061407 0.19399411105849965 0.4076904717306532 0.19399411105856212
 0.21060234707516035 0.2918112090226221 -0.025983290536367394 -0.6797994311392712 0.40769047173065903 0.19399411105857386 0.40769047173071443 0.19399411105863287
 0.40769047173061385 0.19399411105849954 0.4076904717306592 0.19399411105857398 -0.005787109543435277 -0.684276733277305 0.19040616608202182 0.2962885111605513
 0.40769047173065304 0.1939941110585619 0.40769047173071427 0.19399411105863282 0.19040616608202177 0.29628851116055116 -0.0057871095432727605 -0.6842767332772157
100500000.0 -0.029083122064088432 -0.6786100531605913 0.21220530238270485 0.29184339560865685 0.40843890984060044 0.1933833287760944 0.40843890984063996 0.1933833287761571
 0.2122053023827047 0.2918433956086568 -0.029083122063885195 -0.6786100531604939 0.40843890984064585 0.19338332877616904 0.40843890984070147 0.193383328776228
 0.40843890984060033 0.19338332877609443 0.408438909840646 0.19338332877616898 -0.008930964849178446 -0.6831805795647045 0.19205314516779112 0.29641392201276295
 0.4084389098406398 0.193383328776157 0.40843890984070147 0.1933833287762279 0.1920531451677911 0.2964139220127629 -0.008930964849015299 -0.6831805795646153
101000000.0 -0.032157277800489874 -0.6774150529148248 0.21379937352112072 0.29186577619034393 0.40917895213959304 0.19277463836236897 0.4091789521396328 0.19277463836243164
 0.2137993735211207 0.2918657761903438 -0.032157277800286786 -0.6774150529147281 0.4091789521396387 0.19277463836244338 0.40917895213969474 0.19277463836250222
 0.40917895213959277 0.19277463836236894 0.40917895213963873 0.19277463836244332 -0.012049774631895029 -0.6820778101073358 0.19369187035252183 0.2965285333828475
 0.4091789521396327 0.1927746383624315 0.4091789521396945 0.19277463836250225 0.19369187035252178 0.29652853338284746 -0.012049774631731533 -0.682077810107247
101500000.0 -0.03520597584629414 -0.676214647640236 0.21538455138758436 0.291878523320489 0.4099107122292628 0.19216806216000312 0.4099107122293029 0.19216806216006585
 0.2153845513875843 0.29187852332048886 -0.0352059758460904 -0.6762146476401395 0.40991071222930914 0.19216806216007765 0.4099107122293653 0.19216806216013652
 0.40991071222926256 0.1921680621600032 0.4099107122293091 0.19216806216007773 -0.015143738512996182 -0.6809686454034091 0.1953223140542824 0.296632521083655
 0.40991071222930264 0.1921680621600657 0.40991071222936515 0.19216806216013654 0.1953223140542823 0.29663252108365495 -0.015143738512832468 -0.6809686454033204
102000000.0 -0.03822943320203918 -0.675009049972869 0.2169608291023264 0.2918818073761776 0.410634302049764 0.1915636212984765 0.4106343020498045 0.19156362129853927
 0.21696082910232634 0.29188180737617747 -0.038229433201835195 -0.6750090499727728 0.4106343020498105 0.19156362129855103 0.4106343020498672 0.1915636212986099
 0.4106343020497636 0.19156362129847646 0.4106343020498106 0.19156362129855103 -0.018213055324798413 -0.6798533015536666 0.19694445122508158 0.296726058956968
 0.4106343020498043 0.19156362129853907 0.4106343020498668 0.1915636212986098 0.19694445122508142 0.2967260589569679 -0.018213055324634183 -0.6798533015535783
102500000.0 -0.04122786574178411 -0.6737984680319195 0.21852820193805617 0.291875796564405 0.4113498319017709 0.190961335733889 0.41134983190181174 0.19096133573395183
 0.2185282019380561 0.29187579656440493 -0.04122786574157938 -0.6737984680318236 0.41134983190181795 0.1909613357339637 0.41134983190187496 0.1909613357340225
 0.41134983190177066 0.19096133573388907 0.411349831901818 0.19096133573396368 -0.021257923081699628 -0.6787319903381926 0.19855825927796772 0.2968093188706709
 0.4113498319018116 0.19096133573395171 0.4113498319018746 0.19096133573402244 0.19855825927796758 0.2968093188706708 -0.02125792308153516 -0.6787319903381045
103000000.0 -0.04420148818805538 -0.6725831055036497 0.22008666725100684 0.29186065692875063 0.4120574104684309 0.1903612242875826 0.4120574104684721 0.19036122428764532
 0.22008666725100673 0.2918606569287506 -0.044201488187850586 -0.672583105503554 0.4120574104684784 0.19036122428765723 0.41205741046853567 0.190361224287716
 0.41205741046843064 0.19036122428758256 0.41205741046847844 0.19036122428765717 -0.02427853895270339 -0.677604919292087 0.20016371801565078 0.29688247071718044
 0.41205741046847183 0.19036122428764515 0.41205741046853533 0.19036122428771593 0.2001637180156507 0.29688247071718044 -0.024278538952538575 -0.677604919291999
103500000.0 -0.04715051408819066 -0.671363161723964 0.22163622441357606 0.2918365523570412 0.41275714483721343 0.1897633046835955 0.412757144837255 0.18976330468365837
 0.22163622441357597 0.2918365523570412 -0.04715051408798545 -0.6713631617238685 0.4127571448372613 0.1897633046836703 0.412757144837319 0.18976330468372896
 0.41275714483721315 0.18976330468359554 0.41275714483726134 0.1897633046836702 -0.027275099235242677 -0.6764722917800088 0.20176080956062376 0.296945682413079
 0.41275714483725473 0.18976330468365815 0.4127571448373186 0.18976330468372882 0.20176080956062367 0.2969456824130788 -0.027275099235077305 -0.6764722917799212
104000000.0 -0.050075155792030326 -0.6701388317596518 0.2231768747485422 0.2918036445899486 0.41344914052164966 0.18916759358498683 0.4134491405216916 0.18916759358504973
 0.22317687474854228 0.2918036445899487 -0.05007515579182486 -0.6701388317595568 0.4134491405216979 0.1891675935850615 0.4134491405217559 0.1891675935851202
 0.4134491405216496 0.18916759358498686 0.41344914052169796 0.18916759358506147 -0.03024779933026744 -0.6753343070696037 0.20334951828677533 0.2969991198998934
 0.4134491405216914 0.1891675935850496 0.4134491405217556 0.1891675935851201 0.20334951828677525 0.29699911989989325 -0.03024779933010186 -0.6753343070695161
104500000.0 -0.052975624430912985 -0.6689103064883196 0.22470862146483037 0.2917620932304715 0.41413350148294664 0.1885741066290606 0.4141335014829887 0.18857410662912338
 0.22470862146483017 0.2917620932304712 -0.05297562443070706 -0.6689103064882249 0.41413350148299516 0.18857410662913518 0.4141335014830532 0.1885741066291939
 0.4141335014829463 0.18857410662906043 0.4141335014829952 0.18857410662913515 -0.0331968337185553 -0.6741911604038208 0.2049298307524685 0.2970429471459651
 0.41413350148298844 0.1885741066291233 0.41413350148305306 0.18857410662919386 0.20492983075246848 0.2970429471459651 -0.03319683371838925 -0.6741911604037333
105000000.0 -0.05585212989793083 -0.6676777726770172 0.22623146959480556 0.2917120557542467 0.4148103301514675 0.18798285846152304 0.41481033015151 0.18798285846158583
 0.22623146959480547 0.29171205575424647 -0.055852129897724735 -0.667677772676923 0.4148103301515166 0.18798285846159773 0.4148103301515748 0.18798285846165622
 0.4148103301514672 0.18798285846152296 0.4148103301515166 0.1879828584615977 -0.036122395938204224 -0.6730430430721331 0.20650173563507482 0.29707732614935517
 0.41481033015150975 0.18798285846158566 0.4148103301515747 0.1879828584616562 0.20650173563507476 0.2970773261493551 -0.03612239593803807 -0.6730430430720462
105500000.0 -0.058704880829402256 -0.6664414130595785 0.22774542593307107 0.29165368752064824 0.4154797274480699 0.18739386276960388 0.4154797274481129 0.18739386276966677
 0.22774542593307093 0.2916536875206481 -0.05870488082919558 -0.6664414130594842 0.41547972744811934 0.1873938627696786 0.4154797274481781 0.18739386276973724
 0.41547972744806977 0.18739386276960393 0.4154797274481195 0.1873938627696787 -0.03902467856327595 -0.6718901424806721 0.20806522366694052 0.29710241694173495
 0.41547972744811257 0.18739386276966657 0.4154797274481779 0.18739386276973716 0.20806522366694047 0.2971024169417348 -0.039024678563109406 -0.6718901424805855
106000000.0 -0.06153408458751567 -0.6652014064126859 0.22925049897674316 0.29158714178462114 0.4161417928052902 0.18680713231417218 0.41614179280533337 0.186807132314235
 0.22925049897674327 0.2915871417846212 -0.061534084587308774 -0.665201406412592 0.4161417928053402 0.1868071323142469 0.4161417928053991 0.1868071323143054
 0.41614179280528996 0.18680713231417215 0.4161417928053401 0.18680713231424684 -0.04190387318354605 -0.6707326422212833 0.20962028757276935 0.2971183775932113
 0.41614179280533325 0.18680713231423499 0.41614179280539876 0.1868071323143053 0.2096202875727693 0.29711837759321125 -0.04190387318337918 -0.6707326422211966
106500000.0 -0.06433994724411136 -0.6639579276306793 0.23074669886718374 0.2915125697092113 0.4167966241883674 0.18622267896087502 0.4167966241884109 0.18622267896093786
 0.23074669886718363 0.29151256970921113 -0.06433994724390402 -0.6639579276305857 0.4167966241884176 0.18622267896094977 0.41679662418847685 0.18622267896100822
 0.41679662418836705 0.1862226789608749 0.4167966241884178 0.1862226789609497 -0.044760170385332726 -0.6695707221395157 0.21116692200840081 0.29712536421804037
 0.41679662418841057 0.18622267896093772 0.4167966241884766 0.18622267896100808 0.21116692200840076 0.29712536421804037 -0.04476017038516552 -0.6695707221394294
107000000.0 -0.06712267356555424 -0.6627111477991168 0.23223403733316095 0.291430120378743 0.4174443181160999 0.1856405137103291 0.41744431811614385 0.18564051371039214
 0.23223403733316084 0.2914301203787429 -0.06712267356534696 -0.6627111477990235 0.41744431811615046 0.18564051371040385 0.41744431811621013 0.18564051371046228
 0.4174443181160998 0.18564051371032914 0.41744431811615074 0.18564051371040388 -0.04759375973336458 -0.6684045584015613 0.21270512350096663 0.2971235309811802
 0.4174443181161435 0.18564051371039197 0.4174443181162099 0.18564051371046217 0.21270512350096646 0.29712353098118005 -0.047593759733196954 -0.668404558401475
107500000.0 -0.06988246699866653 -0.6614612342671056 0.23371252763541733 0.29133994081260794 0.4180849696815272 0.18506064672739192 0.4180849696815713 0.18506064672745495
 0.23371252763541736 0.29133994081260783 -0.06988246699845847 -0.6614612342670125 0.4180849696815783 0.18506064672746672 0.41808496968163794 0.185060646727525
 0.41808496968152703 0.18506064672739186 0.4180849696815783 0.1850606467274667 -0.05040482975365621 -0.6672343235601448 0.21423489039040286 0.2971130301056399
 0.4180849696815712 0.18506064672745484 0.41808496968163783 0.18506064672752512 0.21423489039040275 0.29711303010563983 -0.05040482975348819 -0.6672343235600584
108000000.0 -0.07261952965767414 -0.6602083507184175 0.2351821845126191 0.2912421759796246 0.4187186725724299 0.18448308736954097 0.41871867257247447 0.18448308736960403
 0.2351821845126189 0.29124217597962443 -0.07261952965746597 -0.6602083507183247 0.4187186725724812 0.1844830873696158 0.4187186725725414 0.18448308736967406
 0.41871867257242956 0.18448308736954103 0.41871867257248124 0.1844830873696158 -0.053193567917360414 -0.6660601866193838 0.21575622277230103 0.2970940118805838
 0.4187186725724741 0.1844830873696038 0.41871867257254114 0.18448308736967395 0.21575622277230094 0.2970940118805837 -0.05319356791719224 -0.6660601866192982
108500000.0 -0.07533406231214353 -0.6589526572414048 0.23664302412866087 0.2911369688129268 0.41934551909164314 0.1839078442143846 0.4193455190916878 0.18390784421444756
 0.2366430241286609 0.2911369688129268 -0.07533406231193483 -0.6589526572413124 0.41934551909169493 0.18390784421445935 0.4193455190917553 0.1839078442145177
 0.419345519091643 0.18390784421438452 0.419345519091695 0.18390784421445935 -0.05596016062556185 -0.66488231309863 0.21726912244207489 0.29706662467014455
 0.41934551909168766 0.18390784421444742 0.419345519091755 0.1839078442145176 0.2172691224420747 0.29706662467014444 -0.05596016062539335 -0.6648823130985443
109000000.0 -0.07802626437586023 -0.6576943103977264 0.238095064021305 0.29102446022535194 0.41996560017717904 0.18333492508633392 0.41996560017722423 0.183334925086397
 0.23809506402130495 0.2910244602253518 -0.07802626437565136 -0.6576943103976343 0.4199656001772312 0.1833349250864087 0.4199656001772919 0.18333492508646682
 0.41996560017717877 0.18333492508633398 0.4199656001772313 0.1833349250864088 -0.0587047931949844 -0.663700865095293 0.21877359284042458 0.29703101492291134
 0.419965600177224 0.18333492508639687 0.4199656001772918 0.18333492508646695 0.21877359284042455 0.2970310149229112 -0.05870479319481551 -0.6637008650952076
109500000.0 -0.08069633389662444 -0.6564334632899058 0.23953832305212447 0.2909047891252868 0.42057900542215104 0.1827643370824573 0.4205790054221966 0.1827643370825204
 0.23953832305212439 0.29090478912528667 -0.08069633389641527 -0.6564334632898138 0.4205790054222035 0.18276433708253226 0.4205790054222645 0.18276433708259035
 0.4205790054221508 0.18276433708245735 0.4205790054222036 0.18276433708253223 -0.061427649844581475 -0.6625160013466745 0.22026963900007687 0.2969873271820484
 0.4205790054221963 0.18276433708252027 0.4205790054222643 0.18276433708259024 0.2202696390000767 0.2969873271820481 -0.061427649844412235 -0.6625160013465895
110000000.0 -0.08334446754692827 -0.6551702656277313 0.24097282135773282 0.2907780924329429 0.4211858230944983 0.1821960865975431 0.42118582309454417 0.18219608659760606
 0.24097282135773274 0.29077809243294284 -0.08334446754671877 -0.6551702656276396 0.4211858230945514 0.182196086597618 0.4211858230946126 0.18219608659767597
 0.42118582309449804 0.18219608659754302 0.42118582309455144 0.1821960865976179 -0.06412891368298046 -0.6613278772908088 0.2217572674937804 0.29693570409601333
 0.4211858230945439 0.182196086597606 0.42118582309461233 0.18219608659767597 0.22175726749378033 0.2969357040960132 -0.06412891368281078 -0.6613278772907238
110500000.0 -0.08597086061547964 -0.6539048637935144 0.2423985803022691 0.29064450509702716 0.4217861401565055 0.18163017934839384 0.42178614015655164 0.1816301793484569
 0.24239858030226905 0.29064450509702705 -0.08597086061526987 -0.6539048637934232 0.4217861401565588 0.18163017934846865 0.4217861401566204 0.18163017934852663
 0.42178614015650534 0.18163017934839387 0.421786140156559 0.18163017934846865 -0.066808766696751 -0.6601366451263292 0.2232364863835357 0.2968762864298347
 0.42178614015655147 0.18163017934845674 0.4217861401566201 0.18163017934852663 0.22323648638353555 0.29687628642983455 -0.06680876669658116 -0.6601366451262445
111000000.0 -0.08857570699954835 -0.6526374009062235 0.24381562243111904 0.2905041601117763 0.4223800422841147 0.18106662039737503 0.42238004228416115 0.1810666203974381
 0.24381562243111887 0.29050416011177616 -0.08857570699933859 -0.6526374009061326 0.4223800422841682 0.18106662039744983 0.42238004228423 0.1810666203975078
 0.4223800422841146 0.18106662039737506 0.4223800422841684 0.18106662039744975 -0.06946738973947422 -0.6589424538713727 0.22470730517103998 0.2968092130769182
 0.42238004228416093 0.1810666203974379 0.42238004228422993 0.1810666203975077 0.2247073051710399 0.29680921307691804 -0.06946738973930403 -0.6589424538712884
111500000.0 -0.09115919919809706 -0.6513680168845033 0.24522397142584454 0.29035718853432824 0.4229676138860258 0.1805054141752399 0.4229676138860725 0.18050541417530297
 0.24522397142584454 0.2903571885343282 -0.09115919919788666 -0.6513680168844126 0.42296761388607984 0.18050541417531465 0.42296761388614185 0.18050541417537264
 0.4229676138860255 0.18050541417523983 0.4229676138860799 0.18050541417531457 -0.07210496252158063 -0.6577454494215286 0.22616973474932323 0.2967346210713459
 0.4229676138860723 0.18050541417530286 0.4229676138861416 0.1805054141753726 0.22616973474932323 0.29673462107134585 -0.07210496252140991 -0.6577454494214441
112000000.0 -0.09372152830567178 -0.6500968485085998 0.2466236520603002 0.2902037195024011 0.4235489381225849 0.17994656450325303 0.42354893812263195 0.179946564503316
 0.24662365206030015 0.29020371950240104 -0.09372152830546106 -0.6500968485085092 0.4235489381226392 0.17994656450332783 0.4235489381227016 0.17994656450338556
 0.4235489381225846 0.17994656450325305 0.4235489381226393 0.17994656450332785 -0.0747216636009343 -0.6565457746068459 0.22762378735555797 0.29665264560064003
 0.42354893812263167 0.17994656450331586 0.4235489381227014 0.17994656450338556 0.2276237873555579 0.2966526456006399 -0.07472166360076365 -0.656545774606762
112500000.0 -0.09626288400702492 -0.6488240294812031 0.2480146901579106 0.29004388025225086 0.42412409692445596 0.17939007461463097 0.4241240969245032 0.179390074614694
 0.24801469015791056 0.2900438802522507 -0.09626288400681393 -0.6488240294811128 0.42412409692451053 0.17939007461470566 0.4241240969245731 0.1793900746147635
 0.4241240969244557 0.1793900746146309 0.4241240969245107 0.17939007461470569 -0.07731767037413907 -0.6553435692479171 0.22906947652501983 0.2965634200189576
 0.42412409692450304 0.1793900746146939 0.4241240969245729 0.1793900746147635 0.22906947652501974 0.2965634200189574 -0.07731767037396776 -0.6553435692478332
113000000.0 -0.09878345457243957 -0.6475496904872231 0.24939711255008615 0.28987779613688625 0.42469317101107495 0.1788359471753245 0.42469317101112264 0.17883594717538742
 0.249397112550086 0.2898777961368862 -0.09878345457222817 -0.6475496904871331 0.42469317101113013 0.17883594717539927 0.42469317101119297 0.17883594717545703
 0.4246931710110748 0.17883594717532442 0.4246931710111302 0.17883594717539916 -0.07989315906853638 -0.6541389702110343 0.2305068170461781 0.29646707586069015
 0.42469317101112236 0.17883594717538737 0.4246931710111927 0.17883594717545698 0.23050681704617798 0.2964670758606901 -0.07989315906836492 -0.6541389702109505
113500000.0 -0.10128342685373161 -0.6462739592525139 0.2507709470357539 0.28970559064451296 0.4252562399088867 0.17828418430415763 0.4252562399089347 0.17828418430422063
 0.2507709470357539 0.28970559064451296 -0.10128342685351999 -0.6462739592524241 0.42525623990894224 0.17828418430423235 0.4252562399090054 0.17828418430429002
 0.4252562399088866 0.17828418430415757 0.42525623990894224 0.17828418430423232 -0.0824483047348802 -0.6529321114624473 0.23193582491689776 0.2963637428544392
 0.42525623990893446 0.17828418430422047 0.425256239909005 0.1782841843042899 0.23193582491689763 0.29636374285443906 -0.08244830473470864 -0.6529321114623639
114000000.0 -0.10376298628090157 -0.6449969606015613 0.25213622234197935 0.2895273854171854 0.4258133819693587 0.17773478759234618 0.4258133819694069 0.17773478759240932
 0.2521362223419793 0.28952738541718526 -0.10376298628068976 -0.6449969606014717 0.4258133819694145 0.17773478759242098 0.4258133819694778 0.17773478759247854
 0.4258133819693584 0.1777347875923462 0.4258133819694146 0.17773478759242095 -0.08498328124065585 -0.6517231241217226 0.23335651730172857 0.29625354893733946
 0.42581338196940666 0.17773478759240907 0.4258133819694776 0.17773478759247846 0.23335651730172852 0.2962535489373393 -0.08498328124048384 -0.6517231241216395
114500000.0 -0.10622231685941425 -0.6437188165141479 0.2534929680856568 0.2893433002696417 0.42636467438677583 0.17718775812241247 0.4263646743868244 0.1771877581224755
 0.25349296808565674 0.2893433002696416 -0.10622231685920204 -0.6437188165140585 0.42636467438683195 0.1771877581224872 0.4263646743868956 0.17718775812254478
 0.4263646743867756 0.17718775812241244 0.42636467438683207 0.17718775812248722 -0.08749826126402711 -0.6505121365142204 0.23476891249026477 0.2961366202697071
 0.4263646743868242 0.17718775812247536 0.42636467438689546 0.17718775812254475 0.23476891249026466 0.296136620269707 -0.08749826126385483 -0.6505121365141372
115000000.0 -0.10866160116807676 -0.6424396461810106 0.25484121473624505 0.2891534532083039 0.4269101932158125 0.1766430964865138 0.42691019321586127 0.1766430964865769
 0.25484121473624494 0.2891534532083038 -0.10866160116786407 -0.6424396461809215 0.42691019321586904 0.17664309648658857 0.426910193215933 0.1766430964866461
 0.42691019321581225 0.17664309648651386 0.42691019321586915 0.17664309648658857 -0.08999341628838879 -0.6492992742226987 0.23617302985655236 0.296013081249985
 0.42691019321586116 0.17664309648657672 0.42691019321593265 0.17664309648664597 0.2361730298565523 0.2960130812499849 -0.08999341628821633 -0.649299274222616
115500000.0 -0.11108102035749769 -0.641159566058506 0.25618099357952673 0.2889579604504192 0.427450013388882 0.1761008028042053 0.427450013388931 0.17610080280426813
 0.2561809935795267 0.2889579604504192 -0.11108102035728512 -0.6411595660584174 0.42745001338893884 0.17610080280428 0.42745001338900285 0.17610080280433735
 0.4274500133888818 0.17610080280420523 0.4274500133889389 0.17610080280427987 -0.0924689165975004 -0.6480846601380595 0.2375688898195245 0.29588305452996533
 0.4274500133889308 0.1761008028042681 0.4274500133890026 0.17610080280433726 0.2375688898195244 0.2958830545299653 -0.0924689165973277 -0.6480846601379768
116000000.0 -0.11348075414910129 -0.6398786899222983 0.25751233668236806 0.2887569364433256 0.4279842087332623 0.17556087673964932 0.42798420873331194 0.1755608767397123
 0.2575123366823679 0.2887569364433254 -0.11348075414888806 -0.63987868992221 0.4279842087333197 0.175560876739724 0.42798420873338416 0.17556087673978135
 0.4279842087332622 0.1755608767396493 0.42798420873332 0.17556087673972395 -0.0949249312711825 -0.6468684145092425 0.23895651380444433 0.29574666103026254
 0.4279842087333117 0.17556087673971207 0.42798420873338405 0.17556087673978132 0.23895651380444416 0.2957466610302624 -0.0949249312710094 -0.6468684145091601
116500000.0 -0.11586098083467052 -0.6385971289200804 0.25883527685845725 0.28855049388382165 0.42851285198800243 0.17502331751829367 0.42851285198805233 0.17502331751835662
 0.2588352768584572 0.2885504938838215 -0.11586098083445762 -0.6385971289199924 0.42851285198806 0.17502331751836817 0.4285128519881247 0.17502331751842545
 0.4285128519880022 0.17502331751829367 0.42851285198806 0.1750233175183682 -0.09736162818155591 -0.645650654992285 0.2403359242053372 0.2956040199560191
 0.428512851988052 0.17502331751835645 0.42851285198812444 0.17502331751842537 0.2403359242053372 0.2956040199560188 -0.0973616281813826 -0.645650654992203
117000000.0 -0.1182218772764106 -0.6373149916233504 0.26014984763500093 0.28833874373762414 0.42903601482060016 0.17448812394302846 0.4290360148206503 0.1744881239430914
 0.26014984763500076 0.288338743737624 -0.11822187727619717 -0.6373149916232627 0.42903601482065806 0.17448812394310315 0.42903601482072307 0.17448812394316035
 0.42903601482059994 0.1744881239430285 0.4290360148206582 0.1744881239431031 -0.09977917398980518 -0.6444314966985535 0.2417071443483904 0.2954552488128198
 0.4290360148206499 0.17448812394309118 0.42903601482072273 0.17448812394316016 0.24170714434839027 0.29545524881281965 -0.09977917398963171 -0.6444314966984716
117500000.0 -0.12056361890749245 -0.63603238407825 0.26145608322035524 0.2881217952588956 0.42955376784346355 0.1739552944098437 0.42955376784351396 0.1739552944099066
 0.2614560832203551 0.2881217952588954 -0.12056361890727883 -0.6360323840781625 0.4295537678435219 0.17395529440991814 0.42955376784358684 0.17395529440997543
 0.42955376784346333 0.17395529440984364 0.429553767843522 0.17395529440991814 -0.10217773414344293 -0.6432110522421608 0.2430701984563004 0.295300463422799
 0.4295537678435136 0.17395529440990656 0.4295537678435868 0.1739552944099754 0.24307019845630037 0.295300463422799 -0.10217773414326882 -0.6432110522420789
118000000.0 -0.12288637973307794 -0.6347494098554826 0.2627540184725733 0.28789975600982604 0.4300661806301469 0.1734248269229959 0.43006618063019764 0.17342482692305872
 0.26275401847257324 0.287899756009826 -0.12288637973286412 -0.6347494098553953 0.4300661806302056 0.1734248269230704 0.43006618063027097 0.17342482692312738
 0.43006618063014684 0.17342482692299588 0.4300661806302057 0.17342482692307035 -0.10455747287406257 -0.6419894317865801 0.2444251116135527 0.2951397779409163
 0.4300661806301973 0.1734248269230586 0.43006618063027063 0.1734248269231273 0.24442511161355257 0.29513977794091606 -0.10455747287388861 -0.6419894317864985
118500000.0 -0.12519033233178892 -0.6334661700993266 0.2640436888688446 0.28767273188025455 0.4305733217313666 0.1728967191097048 0.4305733217314173 0.1728967191097676
 0.26404368886884444 0.28767273188025444 -0.12519033233157484 -0.6334661700992397 0.43057332173142554 0.17289671910977925 0.43057332173149093 0.17289671910983623
 0.4305733217313662 0.17289671910970467 0.43057332173142565 0.1728967191097791 -0.10691855319555749 -0.6407667430904672 0.24577190973260762 0.2949733048713876
 0.43057332173141716 0.1728967191097675 0.4305733217314908 0.17289671910983623 0.24577190973260754 0.2949733048713876 -0.1069185531953829 -0.6407667430903856
119000000.0 -0.1274756478576136 -0.6321827635757545 0.2653251304758093 0.2874408271073148 0.4310752586907958 0.1723709682343899 0.43107525869084706 0.17237096823445283
 0.26532513047580936 0.28744082710731467 -0.127475647857399 -0.6321827635756678 0.4310752586908553 0.17237096823446432 0.43107525869092117 0.17237096823452133
 0.4310752586907956 0.17237096823438985 0.43107525869085533 0.17237096823446438 -0.10926113690279099 -0.6395430915526996 0.24711061952098137 0.2948011550842526
 0.4310752586908468 0.1723709682344526 0.4310752586909209 0.17237096823452125 0.2471106195209812 0.2948011550842525 -0.10926113690261609 -0.6395430915526185
119500000.0 -0.12974249604222443 -0.6308992867196745 0.2665983799207264 0.2872041442950918 0.43157205806064236 0.17184757121246266 0.4315720580606938 0.17184757121252545
 0.2665983799207263 0.28720414429509167 -0.12974249604200966 -0.630899286719588 0.431572058060702 0.171847571212537 0.4315720580607682 0.1718475712125939
 0.43157205806064214 0.17184757121246255 0.43157205806070226 0.17184757121253694 -0.11158538457069958 -0.6383185802566488 0.24844126844919645 0.29462343783205874
 0.43157205806069365 0.17184757121252528 0.431572058060768 0.17184757121259384 0.2484412684491963 0.29462343783205863 -0.11158538457052457 -0.6383185802565677
120000000.0 -0.1319910451976948 -0.6296158336813062 0.2678634743634731 0.28696278443427725 0.4320637854170039 0.171326524623687 0.4320637854170557 0.17132652462374973
 0.26786347436347296 0.2869627844342771 -0.1319910451974798 -0.62961583368122 0.4320637854170639 0.17132652462376133 0.4320637854171302 0.17132652462381817
 0.43206378541700363 0.17132652462368686 0.432063785417064 0.17132652462376127 -0.11389145555381482 -0.6370933100136893 0.24976388471958783 0.2944402607666529
 0.4320637854170555 0.17132652462374945 0.4320637854171301 0.17132652462381798 0.2497638847195878 0.29444026076665275 -0.11389145555363969 -0.6370933100136086
120500000.0 -0.13422146221959602 -0.6283324963717065 0.26912045146936125 0.2867168469218097 0.43255050537501016 0.17080782472512213 0.4325505053750623 0.17080782472518488
 0.2691204514693612 0.2867168469218096 -0.1342214622193808 -0.6283324963716206 0.43255050537507045 0.17080782472519637 0.4325505053751372 0.17080782472525302
 0.43255050537501 0.17080782472512207 0.4325505053750706 0.17080782472519634 -0.11617950798618526 -0.6358673794059632 0.2510784972359451 0.29425172995605897
 0.432550505375062 0.1708078247251846 0.43255050537513695 0.17080782472525297 0.251078497235945 0.2942517299560588 -0.11617950798600983 -0.6358673794058827
121000000.0 -0.1364339125904544 -0.6270493645074569 0.2703693493827458 0.2864664295804888 0.4330322816037466 0.1702914674636589 0.43303228160379886 0.17029146746372165
 0.2703693493827457 0.2864664295804885 -0.13643391259023877 -0.6270493645073714 0.43303228160380736 0.17029146746373305 0.43303228160387414 0.17029146746378976
 0.4330322816037464 0.17029146746365884 0.4330322816038075 0.17029146746373316 -0.11844969878168407 -0.6346408848284053 0.2523851355739702 0.29405794990143
 0.43303228160379864 0.1702914674637215 0.43303228160387397 0.17029146746378987 0.2523851355739702 0.29405794990142997 -0.11844969878150828 -0.6346408848283249
121500000.0 -0.13862856038355856 -0.6257665256545267 0.2716102067014117 0.28621162867855254 0.4335091768409655 0.16977744848816295 0.433509176841018 0.16977744848822565
 0.27161020670141167 0.28621162867855243 -0.13862856038334287 -0.6257665256544412 0.4335091768410265 0.1697774484882372 0.4335091768410935 0.16977744848829368
 0.43350917684096524 0.1697774484881629 0.4335091768410266 0.16977744848823706 -0.1207021836346907 -0.6334139205300432 0.2536838299525385 0.2938590235540616
 0.4335091768410178 0.16977744848822549 0.4335091768410933 0.16977744848829368 0.25368382995253846 0.2938590235540616 -0.1207021836345146 -0.6334139205299629
122000000.0 -0.14080556826709759 -0.6244840652713264 0.27284306245171647 0.28595253894920775 0.4339812529075822 0.16926576316123648 0.43398125290763506 0.1692657631612991
 0.27284306245171636 0.2859525389492077 -0.14080556826688143 -0.624484065271241 0.4339812529076437 0.16926576316131076 0.4339812529077109 0.16926576316136727
 0.4339812529075821 0.16926576316123643 0.4339812529076437 0.16926576316131067 -0.12293711702112532 -0.6321865786545784 0.2549746112057389 0.2936550523324525
 0.43398125290763484 0.16926576316129896 0.4339812529077106 0.1692657631613671 0.2549746112057387 0.29365505233245237 -0.12293711702094923 -0.6321865786544983
122500000.0 -0.14296509750861539 -0.6232020667509613 0.2740679560644728 0.2856892536101 0.4344485707219626 0.16875640657060895 0.43444857072201576 0.16875640657067156
 0.2740679560644728 0.2856892536101 -0.1429650975083991 -0.6232020667508761 0.43444857072202436 0.16875640657068303 0.43444857072209186 0.16875640657073948
 0.4344485707219625 0.16875640657060892 0.43444857072202436 0.168756406570683 -0.12515465219982977 -0.630958949280267 0.25625751075568176 0.2934461361393987
 0.43444857072201554 0.1687564065706714 0.4344485707220914 0.16875640657073934 0.25625751075568154 0.2934461361393985 -0.12515465219965333 -0.6309589492801873
123000000.0 -0.14510730797976804 -0.6219206114627025 0.2752849273515531 0.28542186438272116 0.43491119031399855 0.16824937354017003 0.43491119031405184 0.16824937354023262
 0.275284927351553 0.2854218643827211 -0.14510730797955143 -0.6219206114626178 0.43491119031406056 0.16824937354024427 0.43491119031412834 0.16824937354030053
 0.43491119031399833 0.1682493735401701 0.43491119031406067 0.1682493735402442 -0.12735494121427404 -0.6297311204591017 0.25753256058605356 0.2932323733791132
 0.4349111903140518 0.16824937354023256 0.43491119031412806 0.16824937354030056 0.2575325605860534 0.2932323733791131 -0.1273549412140972 -0.6297311204590221
123500000.0 -0.1472323581613679 -0.6206397787926848 0.27649401648319605 0.28515046151173734 0.4353691708389768 0.1677446586406545 0.43536917083903043 0.16774465864071705
 0.276494016483196 0.28515046151173723 -0.14723235816115132 -0.6206397787926006 0.43536917083903925 0.16774465864072857 0.4353691708391071 0.16774465864078475
 0.4353691708389765 0.16774465864065446 0.4353691708390392 0.16774465864072852 -0.1295381348945811 -0.6285031782553105 0.25879979321640345 0.29301386097435556
 0.4353691708390301 0.1677446586407169 0.4353691708391067 0.16774465864078475 0.2587997932164034 0.29301386097435544 -0.12953813489440424 -0.628503178255231
124000000.0 -0.14934040514870534 -0.6193596461838462 0.27769526396600236 0.2848751337842342 0.435822570591242 0.1672422561999876 0.4358225705912958 0.1672422562000502
 0.27769526396600225 0.28487513378423424 -0.14934040514848837 -0.6193596461837618 0.4358225705913046 0.1672422562000617 0.4358225705913727 0.16724225620011796
 0.4358225705912417 0.1672422561999877 0.4358225705913045 0.1672422562000616 -0.13170438285985425 -0.6272752067831822 0.2600592416771455 0.29279069438356314
 0.43582257059129564 0.16724225620005012 0.4358225705913724 0.16724225620011784 0.26005924167714545 0.292790694383563 -0.13170438285967698 -0.627275206783103
124500000.0 -0.15143160465712763 -0.6180802891751187 0.2788887106215979 0.28459596854887154 0.4362714470176548 0.16674216031330635 0.43627144701770904 0.16674216031336891
 0.27888871062159787 0.2845959685488715 -0.1514316046569103 -0.6180802891750345 0.43627144701771775 0.16674216031338038 0.4362714470177862 0.16674216031343644
 0.43627144701765447 0.16674216031330633 0.43627144701771775 0.16674216031338032 -0.13385383352079328 -0.6260472882442277 0.2613109394852581 0.2925629676179735
 0.43627144701770876 0.1667421603133688 0.43627144701778586 0.16674216031343644 0.26131093948525796 0.29256296761797335 -0.13385383352061564 -0.6260472882441487
125000000.0 -0.15350611102787023 -0.6168017814398885 0.2800743975659517 0.2843130517349364 0.4367158567308489 0.1662443648526603 0.43671585673090346 0.16624436485272276
 0.28007439756595154 0.28431305173493626 -0.15350611102765274 -0.6168017814398047 0.4367158567309123 0.1662443648527342 0.43671585673098084 0.16624436485279026
 0.43671585673084873 0.16624436485266028 0.43671585673091234 0.1662443648527342 -0.135986634082592 -0.624819502963687 0.2625549206206679 0.29233077325872764
 0.43671585673090313 0.1662443648527225 0.4367158567309806 0.1662443648527901 0.2625549206206678 0.29233077325872747 -0.13598663408241443 -0.6248195029636084
125500000.0 -0.15556407723412358 -0.6155241948237324 0.28125236618932925 0.284026467871291 0.43715585552228664 0.16574886347640605 0.4371558555223414 0.16574886347646842
 0.2812523661893292 0.2840264678712909 -0.15556407723390597 -0.615524194823649 0.4371558555223504 0.1657488634764799 0.437155855522419 0.16574886347653583
 0.4371558555222864 0.16574886347640597 0.4371558555223504 0.16574886347647982 -0.13810293054809983 -0.6235919294263945 0.26379121950329965 0.29209420247394563
 0.4371558555223411 0.1657488634764683 0.4371558555224188 0.1657488634765358 0.26379121950329953 0.29209420247394563 -0.1381029305479219 -0.6235919294263158
126000000.0 -0.15760565488732411 -0.614247599381443 0.282422658136868 0.28373630010520917 0.4375914983751169 0.16525564963830386 0.43759149837517197 0.16525564963836614
 0.28242265813686807 0.28373630010520906 -0.1576056548871063 -0.61424759938136 0.437591498375181 0.16525564963837758 0.4375914983752499 0.16525564963843334
 0.43759149837511674 0.1652556496383037 0.43759149837518097 0.16525564963837755 -0.1402028677212399 -0.6223646443120069 0.2650198709707785 0.29185334503576565
 0.4375914983751717 0.16525564963836584 0.43759149837524963 0.1652556496384332 0.26501987097077834 0.2918533450357655 -0.14020286772106205 -0.6223646443119286
126500000.0 -0.15963099424365793 -0.6129720634133607 0.2835853152897587 0.28344263022109184 0.43802283947683823 0.1647647165963221 0.4380228394768935 0.1647647165963845
 0.2835853152897587 0.2834426302210918 -0.15963099424343968 -0.6129720634132778 0.4380228394769026 0.16476471659639588 0.43802283947697185 0.1647647165964516
 0.438022839476838 0.16476471659632203 0.4380228394769025 0.16476471659639574 -0.14228658921067375 -0.6211377225296133 0.2662409102567688 0.29160828933733707
 0.4380228394768933 0.16476471659638428 0.43802283947697157 0.16476471659645156 0.2662409102567688 0.291608289337337 -0.1422865892104953 -0.6211377225295351
127000000.0 -0.16164024421076822 -0.6116976535010143 0.2847403797470138 0.28314553865906067 0.4384499322317656 0.16427605742116586 0.43844993223182116 0.1642760574212281
 0.28474037974701355 0.2831455386590605 -0.16164024421054993 -0.6116976535009316 0.4384499322318301 0.16427605742123969 0.43844993223189954 0.16427605742129542
 0.43844993223176526 0.1642760574211659 0.4384499322318303 0.16427605742123966 -0.1443542374336942 -0.6199112372517243 0.267454372969934 0.29135912240976347
 0.4384499322318208 0.16427605742122803 0.4384499322318995 0.16427605742129528 0.2674543729699339 0.2913591224097633 -0.14435423743351564 -0.6199112372516463
127500000.0 -0.16363355235465368 -0.6104244345420923 0.2858878938078148 0.2828451045334184 0.43887282927330773 0.16378966500452707 0.4388728292733635 0.16378966500458925
 0.28588789380781465 0.2828451045334183 -0.16363355235443527 -0.6104244345420097 0.4388728292733725 0.1637896650046007 0.4388728292734422 0.1637896650046564
 0.4388728292733075 0.16378966500452713 0.43887282927337257 0.16378966500460077 -0.14640595362034933 -0.6186852599476628 0.2686602950735046 0.2911059299389819
 0.43887282927336324 0.1637896650045892 0.4388728292734419 0.16378966500465628 0.26866029507350453 0.29110592993898177 -0.1464059536201707 -0.618685259947585
128000000.0 -0.1656110649067467 -0.6091524697847488 0.28702789995441663 0.28254140565097885 0.43929158247605277 0.16330553206707626 0.4392915824761089 0.16330553206713852
 0.2870278999544165 0.28254140565097885 -0.165611064906528 -0.6091524697846663 0.43929158247611794 0.16330553206714993 0.4392915824761879 0.16330553206720547
 0.4392915824760527 0.16330553206707635 0.439291582476118 0.16330553206714982 -0.14844187781777315 -0.6174598604163557 0.26985871286543744 0.2908487962825787
 0.4392915824761087 0.16330553206713827 0.43929158247618755 0.16330553206720527 0.26985871286543733 0.2908487962825785 -0.14844187781759424 -0.6174598604162783
128500000.0 -0.16757292677116406 -0.6078818208612603 0.288160440835601 0.2822345185292546 0.439706242967669 0.16282365116619538 0.43970624296772537 0.1628236511662575
 0.28816044083560094 0.28223451852925446 -0.1675729267709451 -0.6078818208611781 0.4397062429677345 0.16282365116626893 0.4397062429678046 0.16282365116632436
 0.4397062429676688 0.1628236511661955 0.4397062429677346 0.16282365116626896 -0.15046214889472398 -0.6162351068185421 0.2710496629591551 0.2905878044865294
 0.4397062429677251 0.1628236511662574 0.43970624296780436 0.16282365116632433 0.271049662959155 0.2905878044865293 -0.15046214889454484 -0.6162351068184648
129000000.0 -0.169519281532119 -0.6066125478210405 0.28928555925065813 0.2819245184145015 0.4401168611406176 0.16234401470346319 0.44011686114067405 0.16234401470352533
 0.28928555925065813 0.28192451841450145 -0.1695192815318998 -0.6066125478209586 0.4401168611406833 0.16234401470353674 0.44011686114075366 0.162344014703592
 0.44011686114061727 0.16234401470346313 0.4401168611406833 0.16234401470353668 -0.15246690454631606 -0.615011065708406 0.2722331822648494 0.29032303630186
 0.4401168611406738 0.1623440147035252 0.44011686114075327 0.16234401470359203 0.27223318226484927 0.2903230363018599 -0.15246690454613657 -0.6150110657083289
129500000.0 -0.17145027146148475 -0.6053447091630281 0.29040329813389004 0.28161147929961744 0.44052348666368407 0.16186661493190027 0.44052348666374097 0.1618666149319623
 0.29040329813389 0.2816114792996174 -0.1714502714612654 -0.6053447091629465 0.4405234866637502 0.1618666149319737 0.44052348666382074 0.161866614932029
 0.4405234866636839 0.16186661493190024 0.4405234866637502 0.16186661493197363 -0.1544562812989365 -0.6137878020646393 0.27340930797133606 0.29005457220122166
 0.4405234866637408 0.16186661493196214 0.4405234866638205 0.1618666149320288 0.273409307971336 0.2900545722012215 -0.15445628129875683 -0.6137878020645626
130000000.0 -0.17336603752650187 -0.6040783618674564 0.29151370053961606 0.28129547394188803 0.44092616849332966 0.1613914439629804 0.4409261684933866 0.1613914439630423
 0.2915137005396159 0.2812954739418879 -0.17336603752628232 -0.6040783618673751 0.44092616849339594 0.16139144396305372 0.4409261684934665 0.1613914439631088
 0.44092616849332933 0.16139144396298022 0.44092616849339605 0.1613914439630535 -0.15643041451533876 -0.6125653793209515 0.2745780775284468 0.2897824913953756
 0.44092616849338634 0.16139144396304225 0.4409261684934663 0.16139144396310887 0.27457807752844665 0.28978249139537565 -0.1564304145151588 -0.6125653793208744
130500000.0 -0.17526671939762062 -0.6028135614270149 0.29261680962767034 0.28097657388057856 0.4413249548848614 0.1609184937734156 0.4413249548849189 0.16091849377347756
 0.2926168096276702 0.2809765738805784 -0.1752667193974009 -0.6028135614269338 0.441324954884928 0.16091849377348888 0.44132495488499907 0.16091849377354384
 0.4413249548848612 0.1609184937734156 0.4413249548849283 0.16091849377348885 -0.15838943839990424 -0.6113438593960242 0.275739528629948 0.28950687184958074
 0.4413249548849186 0.1609184937734773 0.44132495488499884 0.16091849377354386 0.2757395286299479 0.2895068718495804 -0.1583894383997241 -0.6113438593959477
131000000.0 -0.1771524554564677 -0.6015503618774167 0.2937126686493786 0.2806548494543689 0.44171989340343026 0.1604477562117223 0.4417198934034879 0.16044775621178436
 0.29371266864937856 0.2806548494543688 -0.17715245545624775 -0.601550361877336 0.4417198934034972 0.16044775621179555 0.4417198934035683 0.16044775621185065
 0.44171989340343004 0.16044775621172228 0.4417198934034974 0.16044775621179547 -0.1603334860040639 -0.6101233027229344 0.27689369919696893 0.2892277902998793
 0.44171989340348766 0.1604477562117841 0.4417198934035682 0.1604477562118506 0.2768936991969688 0.2892277902998791 -0.16033348600388342 -0.6101233027228579
131500000.0 -0.1790233828039328 -0.600288815827378 0.29480132093400074 0.2803303698186279 0.4421110309348516 0.15997922300457465 0.44211103093490944 0.15997922300463652
 0.29480132093400063 0.2803303698186278 -0.17902338280371263 -0.6002888158272975 0.44211103093491877 0.1599792230046478 0.44211103093499016 0.15997922300470274
 0.4421110309348513 0.15997922300457468 0.44211103093491894 0.1599792230046478 -0.1622626892318706 -0.6089037682780374 0.27804062736193247 0.28894532226928005
 0.4421110309349092 0.15997922300463638 0.4421110309349898 0.15997922300470277 0.27804062736193236 0.28894532226928 -0.16226268923169004 -0.6089037682779612
132000000.0 -0.1808796372683653 -0.5990289744880232 0.29588280987562465 0.28000320296252373 0.4424984136962557 0.15951288576295078 0.44249841369631376 0.15951288576301254
 0.29588280987562465 0.28000320296252373 -0.180879637268145 -0.5990289744879428 0.4424984136963231 0.15951288576302386 0.4424984136963948 0.1595128857630788
 0.4424984136962556 0.15951288576295086 0.44249841369632326 0.1595128857630238 -0.16417717884571664 -0.6076853136093349 0.2791803514529699 0.28865954208382827
 0.44249841369631354 0.15951288576301245 0.4424984136963945 0.15951288576307868 0.27918035145296977 0.28865954208382816 -0.16417717884553598 -0.6076853136092589
132500000.0 -0.1827213534138733 -0.5977708877017252 0.29695717892050544 0.2796734157259698 0.442882087246569 0.15904873598807967 0.4428820872466274 0.15904873598814134
 0.2969571789205052 0.27967341572596965 -0.1827213534136528 -0.597770887701645 0.44288208724663686 0.15904873598815267 0.44288208724670847 0.15904873598820746
 0.4428820872465688 0.15904873598807956 0.4428820872466369 0.15904873598815256 -0.16607708447218733 -0.606467994864325 0.2803129099788133 0.2883705228885624
 0.44288208724662703 0.15904873598814126 0.4428820872467084 0.15904873598820732 0.28031290997881325 0.2883705228885623 -0.16607708447200636 -0.6064679948642492
133000000.0 -0.18454866454871738 -0.5965146039703887 0.29802447155483025 0.2793410738164048 0.44326209649682835 0.15858676507719532 0.44326209649688686 0.15858676507725697
 0.29802447155483025 0.2793410738164047 -0.1845486645484967 -0.5965146039703089 0.4432620964968964 0.1585867650772681 0.4432620964969684 0.15858676507732286
 0.4432620964968281 0.1585867650771953 0.4432620964968964 0.15858676507726818 -0.1679625346080435 -0.6052518668173469 0.28143834161415016 0.2880783366633559
 0.44326209649688664 0.1585867650772569 0.44326209649696807 0.15858676507732286 0.28143834161415004 0.28807833666335575 -0.16796253460786228 -0.6052518668172712
133500000.0 -0.1863617027337954 -0.5952601704831919 0.2990847312929048 0.27900624182540057 0.4436384857203297 0.1581269643291003 0.44363848572038866 0.15812696432916198
 0.29908473129290475 0.2790062418254004 -0.18636170273357455 -0.5952601704831123 0.4436384857203981 0.1581269643291732 0.4436384857204703 0.15812696432922774
 0.4436384857203294 0.15812696432910028 0.4436384857203981 0.1581269643291732 -0.169833656626327 -0.6040369828964324 0.2825566851854303 0.28778305423863393
 0.4436384857203883 0.15812696432916182 0.44363848572047 0.1581269643292278 0.2825566851854301 0.28778305423863376 -0.1698336566261455 -0.6040369828963569
134000000.0 -0.18816059879120658 -0.5940076331437882 0.30013800166574406 0.27866898324510103 0.44401129856261545 0.15766932494954924 0.44401129856267435 0.15766932494961075
 0.30013800166574395 0.278668983245101 -0.18816059879098546 -0.5940076331437087 0.4440112985626842 0.15766932494962213 0.4440112985627563 0.15766932494967661
 0.44401129856261523 0.15766932494954913 0.4440112985626842 0.157669324949622 -0.17169057678258137 -0.602823395209664 0.28366797965711277 0.28748474531096946
 0.4440112985626742 0.15766932494961075 0.4440112985627561 0.15766932494967661 0.28366797965711266 0.28748474531096946 -0.17169057678239982 -0.6028233952095886
134500000.0 -0.18994548231289274 -0.5927570365969858 0.30118432621006014 0.2783293604844894 0.44438057805130016 0.157213838056455 0.4443805780513594 0.15721383805651648
 0.30118432621005997 0.27832936048448936 -0.18994548231267144 -0.5927570365969065 0.4443805780513691 0.15721383805652772 0.44438057805144154 0.15721383805658212
 0.4443805780512999 0.15721383805645486 0.4443805780513692 0.15721383805652756 -0.17353342022118098 -0.6016111545710545 0.28477226411834256 0.287183478458551
 0.4443805780513591 0.15721383805651626 0.4443805780514413 0.15721383805658196 0.28477226411834244 0.28718347845855097 -0.17353342022099938 -0.6016111545709795
135000000.0 -0.19171648166934743 -0.5915084242549086 0.30222374845763483 0.2779874348854797 0.4447463666057396 0.15676049468492242 0.44474636660579925 0.156760494684984
 0.3022237484576347 0.2779874348854796 -0.19171648166912583 -0.5915084242548297 0.4447463666058089 0.15676049468499512 0.4447463666058816 0.15676049468504943
 0.44474636660573946 0.15676049468492254 0.4447463666058092 0.1567604946849952 -0.17536231098176408 -0.6004003105259554 0.2858695777700457 0.2868793211565197
 0.4447463666057989 0.15676049468498374 0.44474636660588135 0.15676049468504946 0.2858695777700454 0.28687932115651954 -0.17536231098158223 -0.6004003105258805
135500000.0 -0.19347372401838978 -0.5902618383226518 0.3032563119250675 0.27764326673883505 0.4451087060465443 0.1563092857921176 0.44510870604660424 0.15630928579217918
 0.30325631192506747 0.2776432667388349 -0.19347372401816806 -0.590261838322573 0.4451087060466139 0.15630928579219017 0.4451087060466868 0.15630928579224446
 0.44510870604654423 0.15630928579211759 0.44510870604661396 0.15630928579219017 -0.17717737200576106 -0.5991909113759983 0.28695995991243267 0.28657233979217445
 0.4451087060466039 0.15630928579217898 0.4451087060466865 0.15630928579224454 0.2869599599124325 0.2865723397921744 -0.17717737200557881 -0.5991909113759235
136000000.0 -0.19521733531399385 -0.5890173198234383 0.3042820601038856 0.27729691529990985 0.4454676376049372 0.15586020226197483 0.4454676376049972 0.15586020226203628
 0.3042820601038856 0.2772969152999097 -0.19521733531377214 -0.5890173198233599 0.4454676376050069 0.15586020226204725 0.4454676376050801 0.15586020226210154
 0.4454676376049369 0.1558602022619748 0.445467637605007 0.15586020226204728 -0.17897872514301322 -0.5979830042035801 0.2880434499328983 0.28626259968004447
 0.44546763760499686 0.15586020226203617 0.4454676376050798 0.15586020226210162 0.28804344993289815 0.2862625996800444 -0.17897872514283059 -0.5979830042035054
136500000.0 -0.19694744031517228 -0.5877749086232879 0.30530103645101164 0.27694843880421605 0.4458232019319629 0.1554132349097476 0.4458232019320231 0.15541323490980896
 0.30530103645101164 0.27694843880421594 -0.19694744031495018 -0.5877749086232095 0.44582320193203306 0.15541323490982 0.4458232019321063 0.15541323490987413
 0.4458232019319627 0.1554132349097476 0.44582320193203306 0.15541323490982015 -0.18076649115847784 -0.5967766348959005 0.289120087294311 0.2859501650768219
 0.4458232019320229 0.15541323490980888 0.445823201932106 0.1554132349098742 0.2891200872943109 0.2859501650768218 -0.18076649115829516 -0.5967766348958261
137000000.0 -0.19866416259490194 -0.5865346434552041 0.306313284379573 0.2765978944828121 0.446175439107547 0.15496837448640877 0.44617543910760726 0.15496837448647005
 0.3063132843795729 0.27659789448281197 -0.19866416259467967 -0.586534643455126 0.4461754391076173 0.15496837448648118 0.4461754391076906 0.1549683744865351
 0.4461754391075467 0.15496837448640874 0.4461754391076173 0.15496837448648107 -0.18254078973901205 -0.5955718481685569 0.2901899115236767 0.2856350991961575
 0.44617543910760693 0.15496837448646994 0.44617543910769036 0.15496837448653522 0.29018991152367657 0.2856350991961576 -0.1825407897388292 -0.5955718481684825
137500000.0 -0.2003676245490971 -0.5852965619428936 0.3073188472500474 0.2762453385775144 0.44652438864940686 0.1545256116829035 0.44652438864946753 0.15452561168296483
 0.30731884725004743 0.27624533857751427 -0.20036762454887475 -0.5852965619428155 0.4465243886494776 0.15452561168297585 0.4465243886495511 0.15452561168302972
 0.44652438864940663 0.15452561168290352 0.4465243886494775 0.15452561168297585 -0.1843017395002286 -0.5943686875887039 0.2912529622011726 0.2853174642233177
 0.44652438864946736 0.15452561168296464 0.44652438864955085 0.15452561168302978 0.2912529622011725 0.2853174642233176 -0.18430173950004577 -0.5943686875886299
138000000.0 -0.20205794740561336 -0.5840607006240194 0.3083177683617344 0.2758908263559309 0.44687008952182133 0.15408493713425953 0.44687008952188206 0.1540849371343206
 0.3083177683617344 0.27589082635593076 -0.20205794740539063 -0.5840607006239417 0.4468700895218924 0.15408493713433175 0.4468700895219661 0.15408493713438548
 0.44687008952182095 0.15408493713425947 0.4468700895218923 0.15408493713433177 -0.18604945799342443 -0.5931671955977907 0.29230927894953906 0.2849973213296953
 0.4468700895218819 0.15408493713432048 0.44687008952196583 0.15408493713438556 0.292309278949539 0.2849973213296952 -0.18604945799324138 -0.593167195597717
138500000.0 -0.20373525123328606 -0.582827094973003 0.30931009094454237 0.27553441212631685 0.4472125801442534 0.1536463414235595 0.4472125801443147 0.15364634142362063
 0.3093100909445423 0.2755344121263168 -0.2037352512330633 -0.5828270949729254 0.44721258014432463 0.15364634142363165 0.4472125801443986 0.15364634142368538
 0.44721258014425325 0.15364634142355943 0.44721258014432463 0.1536463414236316 -0.18778406171256865 -0.5919674135338745 0.2933589014238186 0.2846747306871812
 0.4472125801443143 0.15364634142362044 0.44721258014439824 0.15364634142368533 0.29335890142381843 0.2846747306871811 -0.18778406171238538 -0.5919674135338009
139000000.0 -0.20539965495099538 -0.5815957794233795 0.31029585815108435 0.2751761492522534 0.4475518983998369 0.1532098150857808 0.4475518983998983 0.15320981508584183
 0.31029585815108424 0.27517614925225337 -0.20539965495077256 -0.5815957794233022 0.4475518983999083 0.15320981508585282 0.44755189839998233 0.1532098150859066
 0.44755189839983667 0.1532098150857807 0.4475518983999083 0.15320981508585266 -0.18950566610135375 -0.5907693816535228 0.29440186930143625 0.28434975148238956
 0.447551898399898 0.1532098150858416 0.44755189839998216 0.1532098150859064 0.29440186930143614 0.2843497514823895 -0.1895056661011701 -0.5907693816534494
139500000.0 -0.2070512763367529 -0.5803667873897157 0.31127511304907224 0.2748160901671467 0.44788808164372135 0.15277534861150333 0.4478880816437831 0.1527753486115644
 0.3112751130490721 0.2748160901671466 -0.2070512763365297 -0.5803667873896388 0.44788808164379307 0.15277534861157543 0.4478880816438675 0.152775348611629
 0.44788808164372107 0.15277534861150338 0.44788808164379307 0.1527753486115754 -0.19121438556029796 -0.5895731391533142 0.29543822227261046 0.2840224419307381
 0.44788808164378274 0.15277534861156425 0.4478880816438673 0.15277534861162897 0.29543822227261035 0.28402244193073795 -0.19121438556011408 -0.589573139153241
140000000.0 -0.20869023203680795 -0.579140151289099 0.31224789861400165 0.27445428638855024 0.4482211667112839 0.15234293245049438 0.4482211667113458 0.15234293245055533
 0.31224789861400154 0.27445428638855013 -0.2086902320365845 -0.5791401512890222 0.4482211667113559 0.1523429324505663 0.4482211667114305 0.15234293245061978
 0.44822116671128365 0.15234293245049435 0.4482211667113559 0.15234293245056632 -0.19291033345389902 -0.5883787241909366 0.29646800003108614 0.2836928592903808
 0.4482211667113455 0.15234293245055525 0.44822116671143025 0.1523429324506198 0.29646800003108614 0.28369285929038074 -0.1929103334537151 -0.5883787241908636
140500000.0 -0.21031663757476649 -0.5779159025622049 0.31321425772211897 0.2740907885323099 0.44855118992620424 0.1519125570151686 0.4485511899262663 0.15191255701522954
 0.31321425772211897 0.2740907885323098 -0.21031663757454308 -0.5779159025621284 0.4485511899262765 0.15191255701524045 0.4485511899263513 0.15191255701529385
 0.4485511899262039 0.15191255701516862 0.4485511899262765 0.15191255701524042 -0.1945936221178343 -0.587186173905897 0.29749124226518037 0.2833610598759951
 0.44855118992626597 0.15191255701522932 0.44855118992635085 0.15191255701529388 0.29749124226518026 0.2833610598759949 -0.19459362211765016 -0.5871861739058242
141000000.0 -0.2119306073607225 -0.5766940716939511 0.31417423314366366 0.2737256463265313 0.4488781871084097 0.1514842126839324 0.44887818710847194 0.15148421268399315
 0.31417423314366366 0.27372564632653124 -0.21193060736049904 -0.5766940716938749 0.4488781871084823 0.1514842126840041 0.44887818710855704 0.15148421268405746
 0.44887818710840954 0.1514842126839324 0.44887818710848226 0.15148421268400408 -0.19626436286620055 -0.5859955244398459 0.2985079886491351 0.28302709907241896
 0.4488781871084717 0.15148421268399315 0.4488781871085569 0.1514842126840575 0.298507988649135 0.28302709907241896 -0.1962643628660162 -0.5859955244397731
141500000.0 -0.21353225470039472 -0.5754746882337467 0.3151278675363755 0.27335890862537043 0.44920219358188973 0.1510578898044117 0.44920219358195224 0.1510578898044725
 0.3151278675363753 0.27335890862537043 -0.21353225470017104 -0.5754746882336704 0.4492021935819624 0.15105788980448348 0.44920219358203745 0.15105788980453685
 0.4492021935818895 0.1510578898044117 0.44920219358196234 0.15105788980448337 -0.19792266599879205 -0.584806810956525 0.29951827883476595 0.28269103134814155
 0.4492021935819519 0.1510578898044724 0.4492021935820373 0.15105788980453677 0.2995182788347659 0.28269103134814155 -0.19792266599860742 -0.5848068109564523
142000000.0 -0.215121691804266 -0.574257780815341 0.3160752034392613 0.272990623422649 0.44952324418238215 0.15063357869657065 0.4495232441824448 0.1506335786966313
 0.31607520343926127 0.272990623422649 -0.21512169180404217 -0.5742577808152648 0.44952324418245504 0.15063357869664243 0.4495232441825304 0.15063357869669555
 0.4495232441823818 0.15063357869657074 0.4495232441824552 0.15063357869664237 -0.1995686408084121 -0.5836200676613422 0.30052215244340097 0.28235291026864345
 0.4495232441824445 0.15063357869663127 0.4495232441825299 0.15063357869669544 0.30052215244340075 0.2823529102686433 -0.19956864080822762 -0.5836200676612698
142500000.0 -0.21669902979672356 -0.5730433771762835 0.31701628326661413 0.27262083786529373 0.449841373264934 0.15021126965572074 0.44984137326499696 0.15021126965578147
 0.317016283266614 0.2726208378652936 -0.21669902979649958 -0.5730433771762078 0.44984137326500717 0.1502112696557923 0.4498413732650828 0.15021126965584541
 0.44984137326493384 0.15021126965572082 0.44984137326500745 0.1502112696557923 -0.201202395588216 -0.5824353278205843 0.3015196490581001 0.2820127885095877
 0.4498413732649968 0.1502112696557813 0.4498413732650825 0.15021126965584533 0.30151964905809997 0.2820127885095876 -0.20120239558803116 -0.5824353278205122
143000000.0 -0.2182643787251944 -0.5718315041770008 0.3179511493022746 0.27224959826660144 0.45015661471133916 0.1497909529554269 0.4501566147114023 0.1497909529554875
 0.3179511493022745 0.2722495982666014 -0.21826437872497012 -0.5718315041769253 0.45015661471141266 0.14979095295549852 0.45015661471148827 0.14979095295555145
 0.4501566147113389 0.14979095295542705 0.45015661471141266 0.1497909529554985 -0.20282403763907605 -0.5812526237802692 0.3025108082161498 0.28167071786986303
 0.45015661471140206 0.14979095295548733 0.45015661471148793 0.1497909529555513 0.3025108082161497 0.28167071786986286 -0.2028240376388913 -0.5812526237801974
143500000.0 -0.21981784756927494 -0.5706221878194953 0.31887984369412997 0.27187695011932894 0.45046900193745126 0.1493726188503115 0.45046900193751477 0.14937261885037204
 0.31887984369412986 0.2718769501193288 -0.2198178475690505 -0.5706221878194199 0.4504690019375252 0.14937261885038294 0.4504690019376009 0.1493726188504358
 0.4504690019374511 0.14937261885031158 0.4504690019375252 0.14937261885038297 -0.2044336732769747 -0.5800719869846476 0.30349566940182304 0.28132674928447443
 0.45046900193751443 0.1493726188503719 0.4504690019376007 0.14937261885043582 0.3034956694018229 0.2813267492844743 -0.20443367327678952 -0.5800719869845758
144000000.0 -0.2213595442498498 -0.5694154532656759 0.3198024084488444 0.2715029381086125 0.4507785679003813 0.1489562575787614 0.45077856790044474 0.14895625757882186
 0.31980240844884444 0.2715029381086124 -0.22135954424962515 -0.5694154532656008 0.4507785679004553 0.14895625757883274 0.45077856790053117 0.1489562575788854
 0.4507785679003811 0.1489562575787614 0.45077856790045534 0.14895625757883263 -0.20603140784041213 -0.5788934479943583 0.3044742720394003 0.28098093283728787
 0.45077856790044457 0.1489562575788216 0.45077856790053095 0.14895625757888545 0.3044742720394002 0.28098093283728776 -0.20603140784022692 -0.5788934479942867
144500000.0 -0.22288957563819856 -0.5682113248553274 0.3207188854268116 0.2711276061247126 0.4510853451055719 0.1485418593655383 0.45108534510563564 0.14854185936559863
 0.3207188854268116 0.27112760612471254 -0.22288957563797374 -0.5682113248552526 0.4510853451056463 0.14854185936560946 0.45108534510572224 0.1485418593656622
 0.45108534510557174 0.1485418593655383 0.4510853451056463 0.14854185936560946 -0.20761734569783435 -0.5777170365042441 0.3054466554864408 0.2806333177736222
 0.4510853451056354 0.14854185936559844 0.4510853451057219 0.1485418593656621 0.3054466554864406 0.2806333177736221 -0.20761734569764906 -0.5777170365041726
145000000.0 -0.22440804756508614 -0.5670098261237229 0.3216293163373231 0.27075099727558927 0.45138936561375986 0.14812941442429878 0.45138936561382387 0.1481294144243592
 0.32162931633732295 0.27075099727558916 -0.22440804756486124 -0.5670098261236481 0.45138936561383425 0.14812941442436992 0.4513893656139105 0.14812941442442262
 0.4513893656137594 0.1481294144242988 0.4513893656138343 0.14812941442436997 -0.20919159025507103 -0.5765427813608347 0.3064128590273011 0.2802839525126941
 0.4513893656138236 0.14812941442435898 0.45138936561391035 0.14812941442442254 0.3064128590273009 0.28028395251269395 -0.20919159025488518 -0.5765427813607635
145500000.0 -0.2259150648298362 -0.565810979818888 0.32253374273394947 0.27037315389930655 0.4516906610478212 0.1477189129600239 0.4516906610478856 0.14771891296008424
 0.3225337427339494 0.27037315389930644 -0.22591506482961124 -0.5658109798188135 0.45169066104789607 0.14771891296009493 0.4516906610479725 0.14771891296014755
 0.451690661047821 0.1477189129600239 0.45169066104789607 0.14771891296009484 -0.21075424396278458 -0.5753707105795005 0.3073729218668912 0.27993288465991206
 0.4516906610478852 0.14771891296008396 0.4516906610479722 0.1477189129601474 0.30737292186689097 0.27993288465991195 -0.21075424396259868 -0.5753707105794295
146000000.0 -0.22741073120938238 -0.5646148079185238 0.32343220601012457 0.2699941175762689 0.4519892625995065 0.14731034517136204 0.451989262599571 0.1473103451714222
 0.32343220601012446 0.26999411757626884 -0.22741073120915717 -0.5646148079184495 0.45198926259958155 0.14731034517143296 0.4519892625996582 0.1473103451714855
 0.45198926259950634 0.147310345171362 0.4519892625995816 0.14731034517143285 -0.21230540832392855 -0.5742008513612855 0.3083268831246639 0.2795801610190236
 0.4519892625995708 0.14731034517142202 0.451989262599658 0.14731034517148534 0.3083268831246637 0.2795801610190235 -0.21230540832374245 -0.5742008513612146
146500000.0 -0.22889514946729755 -0.563421331646594 0.3243247473949267 0.269613929141289 0.45228520103606273 0.1469037012528883 0.4522852010361275 0.14690370125294835
 0.32432474739492656 0.26961392914128895 -0.22889514946707218 -0.56342133164652 0.45228520103613806 0.14690370125295923 0.45228520103621495 0.14690370125301158
 0.4522852010360627 0.14690370125288837 0.45228520103613823 0.14690370125295923 -0.21384518390120674 -0.5730332301094239 0.3092747818288291 0.27922582760411185
 0.45228520103612724 0.1469037012529483 0.45228520103621456 0.14690370125301153 0.30927478182882895 0.27922582760411174 -0.21384518390102056 -0.5730332301093531
147000000.0 -0.23036842136279728 -0.5622305714895819 0.3252114079490543 0.2692326286954899 0.4525785067067487 0.14649897139728307 0.4525785067068137 0.1464989713973432
 0.3252114079490541 0.2692326286954898 -0.23036842136257177 -0.562230571489508 0.4525785067068243 0.14649897139735385 0.4525785067069013 0.14649897139740625
 0.4525785067067485 0.1464989713972831 0.45257850670682426 0.14649897139735382 -0.21537367032453802 -0.5718678724455457 0.31021665691078804 0.27886992965144686
 0.45257850670681343 0.14649897139734303 0.45257850670690103 0.14649897139740609 0.3102166569107879 0.2788699296514466 -0.21537367032435142 -0.5718678724454751
147500000.0 -0.23183064765971506 -0.5610425472124257 0.32609222856098574 0.26885025561804093 0.45286920954924154 0.14609614579743027 0.45286920954930665 0.14609614579749033
 0.3260922285609856 0.2688502556180408 -0.2318306476594893 -0.5610425472123519 0.45286920954931725 0.14609614579750105 0.45286920954939436 0.1460961457975533
 0.4528692095492412 0.1460961457974304 0.4528692095493173 0.14609614579750108 -0.21689096629851676 -0.5707048032255778 0.3111525471997802 0.27851251163118623
 0.4528692095493063 0.14609614579749017 0.45286920954939425 0.14609614579755328 0.3111525471997801 0.278512511631186 -0.21689096629833013 -0.5707048032255074
148000000.0 -0.23328192813544843 -0.559857277874136 0.3269672499433223 0.2684668485777314 0.4531573390959399 0.14569521464844143 0.4531573390960052 0.14569521464850144
 0.3269672499433221 0.2684668485777314 -0.2332819281352229 -0.5598572778740625 0.45315733909601563 0.14569521464851218 0.453157339096093 0.1456952146485644
 0.4531573390959397 0.14569521464844157 0.45315733909601585 0.1456952146485121 -0.21839716960987368 -0.5695440465553453 0.3120824914177405 0.2781536172589338
 0.4531573390960049 0.1456952146485013 0.45315733909609285 0.14569521464856416 0.31208249141774036 0.27815361725893367 -0.2183971696096869 -0.5695440465552751
148500000.0 -0.23472236158987328 -0.558674781843104 0.3278365126293045 0.2680824455443795 0.45344292448016094 0.1452961681496029 0.45344292448022633 0.14529616814966265
 0.32783651262930447 0.2680824455443793 -0.2347223615896475 -0.558674781843031 0.45344292448023726 0.14529616814967336 0.45344292448031454 0.14529616814972526
 0.45344292448016066 0.1452961681496029 0.45344292448023726 0.14529616814967342 -0.2198923771349291 -0.5683856258058781 0.31300652817435326 0.2777932895071467
 0.45344292448022605 0.14529616814966254 0.45344292448031437 0.14529616814972546 0.3130065281743531 0.27779328950714666 -0.21989237713474233 -0.5683856258058081
149000000.0 -0.23615204585422403 -0.5574950768121034 0.32870005696949967 0.26769708380008106 0.45372599444223854 0.14489899650625307 0.45372599444230405 0.14489899650631285
 0.32870005696949955 0.26769708380008095 -0.23615204585399813 -0.5574950768120304 0.453725994442315 0.14489899650632357 0.45372599444239237 0.1448989965063753
 0.4537259944422382 0.14489899650625304 0.45372599444231504 0.14489899650632349 -0.22137668484703932 -0.5672295636284305 0.31392469596230793 0.2774315706164011
 0.4537259944423037 0.14489899650631255 0.4537259944423921 0.14489899650637522 0.3139246959623078 0.27743157061640095 -0.22137668484685255 -0.5672295636283606
149500000.0 -0.23757107779993883 -0.5563181798129947 0.32955792312865434 0.2673107999502991 0.4540065773355183 0.14450368993159046 0.45400657733558414 0.1445036899316501
 0.3295579231286543 0.2673107999502991 -0.23757107779971282 -0.5563181798129216 0.454006577335595 0.14450368993166088 0.4540065773356727 0.14450368993171273
 0.4540065773355181 0.14450368993159046 0.45400657733559496 0.1445036899316608 -0.22285018782403232 -0.5660758819692139 0.3148370331527408 0.2770685021065115
 0.45400657733558397 0.14450368993165003 0.45400657733567246 0.14450368993171264 0.31483703315274075 0.2770685021065114 -0.2228501878238453 -0.566075881969144
150000000.0 -0.2389795533474667 -0.5551441072311337 0.33041015108270555 0.2669236299347946 0.45428470113225644 0.1441102386484137 0.4542847011323225 0.14411023864847328
 0.33041015108270544 0.26692362993479457 -0.2389795533472404 -0.555144107231061 0.4542847011323333 0.14411023864848405 0.4542847011324111 0.1441102386485357
 0.45428470113225605 0.14411023864841369 0.45428470113233316 0.14411023864848388 -0.22431298025563276 -0.5649246020838534 0.3157435779908644 0.2767041247875075
 0.4542847011323222 0.14411023864847305 0.4542847011324108 0.14411023864853556 0.3157435779908644 0.2767041247875073 -0.22431298025544558 -0.564924602083784
150500000.0 -0.24037756747503725 -0.5539728748194972 0.3312567806159487 0.26653560903839846 0.4545603934294197 0.14371863289079467 0.45456039342948606 0.14371863289085424
 0.3312567806159486 0.26653560903839824 -0.24037756747481068 -0.5539728748194248 0.45456039342949683 0.14371863289086484 0.454560393429575 0.14371863289091646
 0.45456039342941945 0.14371863289079462 0.454560393429497 0.1437186328908648 -0.22576515545087175 -0.563775744551571 0.31664436859177614 0.27633847877046525
 0.45456039342948573 0.143718632890854 0.4545603934295747 0.14371863289091646 0.31664436859177597 0.27633847877046513 -0.22576515545068426 -0.5637757445515017
151000000.0 -0.24176521422738803 -0.5528044977125216 0.332097851318354 0.2661467719016312 0.45483368145439224 0.14332886290569183 0.4548336814544587 0.1433288629057512
 0.3320978513183539 0.26614677190163116 -0.24176521422716146 -0.5528044977124493 0.4548336814544695 0.14332886290576188 0.45483368145454767 0.14332886290581343
 0.454833681454392 0.14332886290569177 0.45483368145446973 0.14332886290576177 -0.22720680584548208 -0.5626293292890979 0.3175394429364412 0.27597160347820077
 0.4548336814544584 0.1433288629057511 0.45483368145454756 0.14332886290581337 0.31753944293644115 0.27597160347820066 -0.22720680584529462 -0.5626293292890286
151500000.0 -0.2431425867244518 -0.5516389904396675 0.3329334025830297 0.26575715253116644 0.45510459207058623 0.14294091895449806 0.4551045920706529 0.1429409189545575
 0.3329334025830297 0.2657571525311665 -0.24314258672422515 -0.5516389904395952 0.45510459207066384 0.1429409189545681 0.45510459207074216 0.1429409189546197
 0.4551045920705859 0.14294091895449826 0.45510459207066367 0.1429409189545682 -0.22863802300927577 -0.5614853755643248 0.31842883886784634 0.27560353765581724
 0.4551045920706525 0.14294091895455743 0.4551045920707417 0.1429409189546196 0.3184288388678462 0.275603537655817 -0.22863802300908795 -0.5614853755642558
152000000.0 -0.24450977717000016 -0.5504763669387125 0.33376347360382513 0.2653667843101429 0.45537315178296234 0.14255479131453377 0.45537315178302923 0.1425547913145931
 0.3337634736038251 0.2653667843101427 -0.2445097771697731 -0.5504763669386408 0.4553731517830402 0.14255479131460358 0.4553731517831188 0.14255479131465504
 0.4553731517829621 0.14255479131453377 0.4553731517830402 0.1425547913146036 -0.23005889765349988 -0.5603439020096933 0.31931259408731777 0.27523431938111687
 0.4553731517830288 0.14255479131459292 0.4553731517831184 0.1425547913146551 0.31931259408731755 0.27523431938111675 -0.23005889765331194 -0.5603439020096244
152500000.0 -0.2458668768602399 -0.5493166405687785 0.33458810337307127 0.26497570000832443 0.45563938674345894 0.14217047028047713 0.45563938674352594 0.14217047028053645
 0.3345881033730711 0.2649757000083244 -0.2458668768600129 -0.5493166405687068 0.45563938674353704 0.14217047028054702 0.45563938674361565 0.14217047028059834
 0.45563938674345866 0.14217047028047725 0.45563938674353704 0.142170470280547 -0.23146951963817508 -0.5592049266353315 0.320190746150999 0.2748639860748707
 0.4556393867435258 0.14217047028053642 0.4556393867436155 0.14217047028059843 0.32019074615099896 0.27486398607487067 -0.2314695196379869 -0.5592049266352627
153000000.0 -0.24721397619236846 -0.5481598241230965 0.3354073306794532 0.2645839317921126 0.4559033227563319 0.14178794616574325 0.45590332275639917 0.14178794616580243
 0.3354073306794532 0.26458393179211254 -0.24721397619214114 -0.5481598241230249 0.4559033227564102 0.14178794616581306 0.455903322756489 0.14178794616586426
 0.4559033227563317 0.1417879461657432 0.45590332275641027 0.14178794616581292 -0.23286997797940842 -0.558068466841942 0.3210633324664861 0.2744925745109512
 0.4559033227563987 0.14178794616580223 0.4559033227564887 0.14178794616586418 0.3210633324664859 0.2744925745109511 -0.2328699779792202 -0.5580684668418734
153500000.0 -0.2485511646730772 -0.5470059298415172 0.3362211941060114 0.26419151123440976 0.45616498528340704 0.14140720930380615 0.45616498528347443 0.1414072093038652
 0.33622119410601126 0.26419151123440965 -0.24855116467284996 -0.5470059298414458 0.4561649852834856 0.14140720930387585 0.4561649852835644 0.1414072093039269
 0.45616498528340677 0.14140720930380615 0.45616498528348565 0.1414072093038758 -0.23426036085668367 -0.5569345394334423 0.3219303902896108 0.27412012082632814
 0.45616498528347416 0.14140720930386508 0.45616498528356425 0.14140720930392686 0.3219303902896106 0.2741201208263281 -0.23426036085649546 -0.5569345394333739
154000000.0 -0.24987853092701034 -0.5458549694227689 0.337029732028265 0.26379846932433637 0.4564243994492465 0.14102825004946973 0.456424399449314 0.14102825004952876
 0.3370297320282649 0.2637984693243363 -0.24987853092678283 -0.5458549694226977 0.4564243994493253 0.14102825004953934 0.4564243994494042 0.14102825004959035
 0.45642439944924623 0.14102825004946976 0.4564243994493253 0.14102825004953926 -0.23564075562012599 -0.5558031606293673 0.32279195672137373 0.27374666053092805
 0.4564243994493137 0.14102825004952865 0.45642439944940394 0.14102825004959033 0.32279195672137356 0.27374666053092794 -0.23564075561993755 -0.5558031606292989
154500000.0 -0.2511961627051718 -0.5447069540364716 0.3378329826124583 0.263404836476805 0.45668159004623027 0.14065105878008813 0.4566815900462981 0.14065105878014714
 0.3378329826124582 0.2634048364768049 -0.2511961627049441 -0.5447069540364007 0.45668159004630926 0.14065105878015757 0.4566815900463886 0.1406510587802086
 0.45668159004623016 0.14065105878008813 0.4566815900463095 0.14065105878015757 -0.23701124879773788 -0.554674346077033 0.32364806870501733 0.27337222851735965
 0.4566815900462978 0.14065105878014705 0.45668159004638825 0.14065105878020862 0.32364806870501717 0.27337222851735965 -0.2370112487975491 -0.5546743460769648
155000000.0 -0.25250414689328393 -0.5435618943349075 0.3386309838139209 0.2630106425419487 0.456936581539555 0.1402756258967355 0.4569365815396231 0.14027562589679432
 0.33863098381392087 0.2630106425419486 -0.25250414689305617 -0.5435618943348369 0.45693658153963435 0.14027562589680478 0.4569365815397136 0.14027562589685566
 0.4569365815395548 0.14027562589673548 0.4569365815396343 0.1402756258968048 -0.2383719261026094 -0.5535481108634702 0.3244987630232389 0.2729968590705046
 0.45693658153962274 0.1402756258967942 0.4569365815397134 0.14027562589685572 0.32449876302323877 0.2729968590705044 -0.2383719261024206 -0.5535481108634023
155500000.0 -0.2538025695200945 -0.5424198004645563 0.3394237733755413 0.262615916814411 0.45718939807214987 0.13990194182533014 0.4571893980722179 0.13990194182538893
 0.33942377337554136 0.26261591681441093 -0.25380256951986674 -0.5424198004644859 0.45718939807222936 0.1399019418253994 0.4571893980723087 0.13990194182545007
 0.4571893980721496 0.1399019418253302 0.45718939807222925 0.13990194182539933 -0.23972287244009635 -0.5524244695271292 0.3253440762955361 0.2726205858769771
 0.45718939807221765 0.13990194182538884 0.4571893980723084 0.13990194182545015 0.325344076295536 0.272620585876977 -0.23972287243990759 -0.5524244695270614
156000000.0 -0.25509151576563033 -0.5412806820773979 0.34021138882635066 0.2622206880424939 0.4574400634695126 0.13952999701771057 0.45744006346958094 0.13952999701776925
 0.34021138882635055 0.2622206880424937 -0.2550915157654022 -0.5412806820773275 0.4574400634695923 0.13952999701777977 0.4574400634696719 0.13952999701783045
 0.4574400634695125 0.13952999701771057 0.4574400634695925 0.13952999701777974 -0.24106417191497076 -0.5513034360693614 0.3261840449756842 0.2722434420344508
 0.45744006346958077 0.13952999701776905 0.45744006346967164 0.13952999701783037 0.32618404497568404 0.2722434420344506 -0.24106417191478188 -0.5513034360692939
156500000.0 -0.25637106996939923 -0.5401445483419868 0.34099386748020966 0.261824984437169 0.45768860124446764 0.13915978195266862 0.4576886012445363 0.13915978195272727
 0.34099386748020954 0.2618249844371689 -0.25637106996917136 -0.5401445483419165 0.4576886012445474 0.13915978195273773 0.45768860124462735 0.13915978195278822
 0.4576886012444674 0.13915978195266865 0.4576886012445476 0.13915978195273765 -0.24239590783853518 -0.5501850239656819 0.32701870534933847 0.2718654600608574
 0.4576886012445359 0.1391597819527271 0.457688601244627 0.13915978195278822 0.32701870534933825 0.2718654600608572 -0.2423959078383461 -0.5501850239656144
157000000.0 -0.25764131563853965 -0.5390114079543058 0.3417712464345982 0.26142883368095177 0.4579350346018433 0.1387912871369379 0.45793503460191193 0.13879128713699654
 0.3417712464345982 0.2614288336809517 -0.25764131563831133 -0.5390114079542359 0.4579350346019235 0.13879128713700692 0.4579350346020033 0.13879128713705738
 0.45793503460184315 0.1387912871369379 0.45793503460192353 0.13879128713700692 -0.24371816273570793 -0.5490692461768157 0.32784809353175914 0.27148667190345493
 0.4579350346019119 0.1387912871369964 0.457935034602003 0.1387912871370574 0.3278480935317591 0.27148667190345477 -0.24371816273551863 -0.5490692461767485
157500000.0 -0.2589023354559126 -0.5378812691483982 0.3425435625695051 0.26103226293664034 0.45817938644307626 0.13842450310614113 0.4581793864431452 0.13842450310619964
 0.342543562569505 0.2610322629366404 -0.25890233545568464 -0.5378812691483282 0.4581793864431564 0.13842450310621013 0.45817938644323647 0.13842450310626048
 0.45817938644307615 0.13842450310614118 0.45817938644315653 0.13842450310621 -0.24503101835207186 -0.5479561151595336 0.32867224546565693 0.27110710894776907
 0.45817938644314493 0.13842450310619958 0.45817938644323614 0.1384245031062604 0.3286722454656567 0.271107108947769 -0.2450310183518824 -0.5479561151594664
158000000.0 -0.26015421128814253 -0.536754139706787 0.3433108525464112 0.26063529885592174 0.4584216793707378 0.13805942042569586 0.4584216793708069 0.13805942042575434
 0.3433108525464111 0.2606352988559217 -0.2601542112879141 -0.5367541397067173 0.4584216793708183 0.13805942042576472 0.45842167937089834 0.13805942042581498
 0.4584216793707377 0.13805942042569588 0.45842167937081835 0.13805942042576463 -0.24633455566088946 -0.54684564287728 0.32949119691915085 0.2707268020264081
 0.45842167937080663 0.13805942042575414 0.4584216793708983 0.13805942042581495 0.32949119691915085 0.27072680202640803 -0.2463345556606999 -0.5468456428772132
158500000.0 -0.26139702419359834 -0.5356300269706832 0.3440731528073651 0.26023796758784673 0.4586619356929885 0.13769602969168274 0.4586619356930579 0.13769602969174116
 0.344073152807365 0.2602379675878467 -0.2613970241933696 -0.5356300269706136 0.4586619356930692 0.13769602969175151 0.4586619356931496 0.13769602969180184
 0.45866193569298846 0.1376960296916828 0.4586619356930692 0.13769602969175157 -0.2476288548700818 -0.5457378408105964 0.33030498348384124 0.27034578142775345
 0.4586619356930575 0.13769602969174108 0.45866193569314934 0.13769602969180172 0.3303049834838411 0.27034578142775334 -0.24762885486989206 -0.5457378408105296
159000000.0 -0.2626308544303227 -0.5345089378499888 0.344830499574149 0.25984029478717324 0.4589001774279586 0.1373343215316735 0.458900177428028 0.1373343215317317
 0.34483049957414885 0.25984029478717313 -0.2626308544300942 -0.5345089378499195 0.4589001774280394 0.1373343215317421 0.4589001774281199 0.13733432153179212
 0.45890017742795836 0.13733432153167366 0.45890017742803957 0.13733432153174213 -0.24891399542916923 -0.5446327199673466 0.3311136405729882 0.2699640769045248
 0.45890017742802763 0.13733432153173164 0.4589001774281196 0.13733432153179223 0.331113640572988 0.2699640769045246 -0.24891399542897957 -0.54463271996728
159500000.0 -0.2638557814639018 -0.5333908788330961 0.34558292884752967 0.2594423056225835 0.45913642630805757 0.13697428660552338 0.4591364263081271 0.1369742866055815
 0.34558292884752956 0.25944230562258336 -0.2638557814636729 -0.5333908788330269 0.4591364263081388 0.13697428660559188 0.45913642630821916 0.13697428660564193
 0.45913642630805723 0.13697428660552333 0.4591364263081388 0.1369742866055919 -0.2501900560361769 -0.5435302908927437 0.33191720341979747 0.2695817176822246
 0.4591364263081269 0.13697428660558153 0.45913642630821916 0.13697428660564198 0.3319172034197974 0.26958171768222466 -0.2501900560359869 -0.5435302908926772
160000000.0 -0.26507188397527787 -0.5322758559964906 0.34633047640659237 0.2590440247847722 0.4593707037842139 0.13661591560612754 0.4593707037842837 0.13661591560618566
 0.34633047640659237 0.259044024784772 -0.2650718839750489 -0.5322758559964218 0.45937070378429523 0.13661591560619588 0.45937070378437583 0.1366159156062459
 0.45937070378421385 0.13661591560612737 0.4593707037842954 0.13661591560619574 -0.25145711464449944 -0.542430563679186 0.33271570707580683 0.26919873246746034
 0.45937070378428346 0.13661591560618552 0.4593707037843756 0.13661591560624584 0.33271570707580655 0.26919873246746034 -0.25145711464430937 -0.5424305636791193
160500000.0 -0.26627923986850627 -0.5311638750141582 0.34707317780815716 0.2586454764944113 0.4596030310300457 0.13625919926014296 0.4596030310301156 0.13625919926020102
 0.3470731778081571 0.2586454764944112 -0.26627923986827723 -0.5311638750140893 0.4596030310301271 0.13625919926021138 0.459603031030208 0.13625919926026123
 0.4596030310300455 0.13625919926014307 0.4596030310301272 0.13625919926021135 -0.25271524846972776 -0.5413335479759014 0.33350918640937144 0.26881514945614804
 0.45960303103011546 0.13625919926020091 0.4596030310302077 0.13625919926026128 0.3335091864093712 0.2688151494561479 -0.2527152484695376 -0.5413335479758352
161000000.0 -0.2674779262784525 -0.530054941166801 0.34781106838626946 0.25824668450998967 0.45983342894596235 0.13590412832867643 0.4598334289460324 0.13590412832873439
 0.34781106838626946 0.2582466845099896 -0.2674779262782233 -0.5300549411667325 0.4598334289460442 0.1359041283287446 0.4598334289461251 0.13590412832879448
 0.4598334289459622 0.13590412832867627 0.4598334289460442 0.13590412832874457 -0.2539645339964363 -0.5402392529984117 0.33429767610424593 0.2684309963415935
 0.4598334289460323 0.13590412832873439 0.4598334289461249 0.1359041283287945 0.33429767610424577 0.2684309963415936 -0.2539645339962458 -0.5402392529983454
161500000.0 -0.26866801957843167 -0.5289490593508702 0.34854418325176906 0.25784767213553267 0.4600619181632021 0.13555069360794048 0.4600619181632724 0.13555069360799835
 0.3485441832517689 0.2578476721355326 -0.2686680195782024 -0.5289490593508016 0.46006191816328385 0.13555069360800878 0.46006191816336506 0.13555069360805844
 0.46006191816320186 0.13555069360794053 0.46006191816328385 0.13555069360800864 -0.25520504698492863 -0.5391476875378073 0.3350812106582585 0.2680463003224633
 0.46006191816327197 0.13555069360799815 0.46006191816336467 0.13555069360805827 0.3350812106582583 0.2680463003224632 -0.25520504698473817 -0.5391476875377416
162000000.0 -0.2698495953877901 -0.5278462340874106 0.3492725572919293 0.2574484622281996 0.46028851904780077 0.13519888592987833 0.46028851904787127 0.1351988859299362
 0.3492725572919293 0.25744846222819956 -0.2698495953875603 -0.5278462340873422 0.460288519047883 0.1351988859299465 0.4602885190479643 0.1351988859299961
 0.4602885190478006 0.13519888592987828 0.460288519047883 0.13519888592994636 -0.2564368624779424 -0.5380588599698495 0.33585982438207435 0.2676610881106319
 0.4602885190478709 0.1351988859299361 0.46028851904796386 0.13519888592999615 0.3358598243820742 0.26766108811063183 -0.2564368624777516 -0.5380588599697836
162500000.0 -0.2710227285794253 -0.5267464695307296 0.34999622517016726 0.2570490772057632 0.46051325170449936 0.13484869616275733 0.4605132517045698 0.13484869616281503
 0.3499962251701671 0.25704907720576303 -0.2710227285791954 -0.5267464695306615 0.46051325170458174 0.13484869616282524 0.460513251704663 0.13484869616287487
 0.46051325170449897 0.13484869616275727 0.46051325170458157 0.1348486961628253 -0.2576600548073127 -0.536972778263893 0.3366335513980473 0.26727538593892003
 0.4605132517045695 0.1348486961628149 0.4605132517046628 0.13484869616287484 0.3366335513980472 0.2672753859389199 -0.25766005480712195 -0.5369727782638274
163000000.0 -0.2721874932872511 -0.5256497694768885 0.3507152213258203 0.2566495390539721 0.46073613598058544 0.1345001152117339 0.46073613598065627 0.13450011521179162
 0.3507152213258201 0.2566495390539719 -0.2721874932870215 -0.5256497694768208 0.460736135980668 0.1345001152118018 0.46073613598074953 0.13450011521185126
 0.4607361359805853 0.13450011521173397 0.46073613598066815 0.13450011521180177 -0.2588746976005937 -0.5358894499916397 0.3374024256391554 0.2668892195687165
 0.46073613598065594 0.1345001152117914 0.46073613598074925 0.1345001152118512 0.3374024256391551 0.26688921956871636 -0.2588746976004028 -0.5358894499915743
163500000.0 -0.27334396291359947 -0.5245561373720223 0.3514295799739891 0.25624986933379656 0.4609571914696753 0.13415313401938947 0.46095719146974634 0.13415313401944703
 0.3514295799739889 0.25624986933379645 -0.27334396291336993 -0.5245561373719545 0.46095719146975783 0.1341531340194572 0.46095719146983954 0.13415313401950657
 0.4609571914696751 0.13415313401938955 0.4609571914697579 0.1341531340194572 -0.26008086378763584 -0.5348088823357217 0.3381664808480177 0.26650261429748934
 0.460957191469746 0.13415313401944706 0.4609571914698393 0.1341531340195066 0.3381664808480174 0.2665026142974892 -0.26008086378744466 -0.5348088823356562
164000000.0 -0.27449221013656466 -0.5234655763204867 0.35213933510544154 0.2558500891885625 0.4611764375154313 0.1338077435662399 0.46117643751550247 0.13380774356629738
 0.35213933510544154 0.25585008918856245 -0.27449221013633485 -0.5234655763204191 0.461176437515514 0.13380774356630748 0.46117643751559595 0.1338077435663568
 0.46117643751543114 0.13380774356623992 0.4611764375155141 0.13380774356630745 -0.26127862560712145 -0.5337310820981171 0.33892575057599067 0.26611559496618636
 0.4611764375155022 0.13380774356629724 0.46117643751559567 0.13380774356635677 0.3389257505759905 0.26611559496618625 -0.26127862560693016 -0.5337310820980521
164500000.0 -0.2756323069172866 -0.5223780890928454 0.3528445204865797 0.25545021935097045 0.4613938932152229 0.13346393487121655 0.4613938932152943 0.13346393487127411
 0.3528445204865796 0.25545021935097023 -0.27563230691705654 -0.5223780890927783 0.46139389321530616 0.133463934871284 0.4613938932153881 0.13346393487133332
 0.4613938932152227 0.13346393487121652 0.4613938932153061 0.1334639348712841 -0.26246805461305583 -0.5326560557084073 0.3396802681823412 0.26572818596652553
 0.46139389321529395 0.1334639348712739 0.4613938932153878 0.13346393487133337 0.33968026818234115 0.2657281859665255 -0.2624680546128644 -0.5326560557083423
165000000.0 -0.2767643245071755 -0.5212936781336904 0.35354516965946164 0.25505028015000436 0.46160957742372616 0.133121698992123 0.46160957742379766 0.13312169899218046
 0.35354516965946153 0.25505028015000436 -0.2767643245069455 -0.5212936781336232 0.4616095774238095 0.13312169899219056 0.46160957742389147 0.13312169899223983
 0.46160957742372594 0.133121698992123 0.46160957742380937 0.13312169899219048 -0.2636492216812148 -0.5315838092318702 0.34043006683349325 0.26534041124817764
 0.4616095774237975 0.13312169899218043 0.4616095774238912 0.13312169899223977 0.3404300668334931 0.2653404112481776 -0.26364922168102306 -0.5315838092318051
165500000.0 -0.27788833345507624 -0.5202123455693025 0.3542413159418836 0.2546502915177326 0.4618235087564655 0.1327810270260664 0.4618235087565372 0.13278102702612374
 0.3542413159418835 0.2546502915177326 -0.2778883334548461 -0.5202123455692352 0.46182350875654893 0.132781027026134 0.4618235087566312 0.1327810270261829
 0.4618235087564653 0.13278102702606642 0.46182350875654893 0.1327810270261338 -0.264822197015547 -0.5305143483774191 0.34117517950234644 0.26495229432584255
 0.4618235087565369 0.13278102702612363 0.4618235087566309 0.13278102702618286 0.34117517950234627 0.26495229432584244 -0.2648221970153553 -0.5305143483773542
166000000.0 -0.279004403614372 -0.5191340932151596 0.35493299242751214 0.2542502729959975 0.4620357055932991 0.13244191010986336 0.46203570559337104 0.13244191010992068
 0.3549329924275118 0.25425027299599756 -0.279004403614142 -0.5191340932150925 0.4620357055933826 0.13244191010993087 0.462035705593465 0.1324419101099799
 0.46203570559329893 0.13244191010986356 0.4620357055933827 0.13244191010993078 -0.2659870501545325 -0.5294476785053879 0.34191563896766436 0.2645638582862194
 0.46203570559337087 0.13244191010992068 0.46203570559346474 0.1324419101099797 0.34191563896766425 0.26456385828621926 -0.2659870501543406 -0.5294476785053233
166500000.0 -0.28011260415002903 -0.5180589225832872 0.355620231986071 0.25385024374300313 0.4622461860818475 0.13210433942042574 0.46224618608191964 0.132104339420483
 0.35562023198607096 0.2538502437430031 -0.2801126041497986 -0.5180589225832205 0.4622461860819314 0.13210433942049288 0.46224618608201384 0.13210433942054192
 0.4622461860818473 0.1321043394204257 0.4622461860819314 0.13210433942049285 -0.26714384997749513 -0.5283838046351641 0.34265147781352956 0.2641751257948735
 0.4622461860819195 0.13210433942048286 0.4622461860820138 0.13210433942054184 0.3426514778135294 0.2641751257948734 -0.26714384997730295 -0.5283838046350996
167000000.0 -0.2812130035455784 -0.5169868348894626 0.3563030672635792 0.253450222539794 0.46245496814086834 0.13176830617511953 0.4624549681409403 0.13176830617517651
 0.3563030672635791 0.2534502225397938 -0.2812130035453479 -0.5169868348893962 0.4624549681409523 0.1317683061751866 0.46245496814103476 0.1317683061752353
 0.462454968140868 0.13176830617511945 0.4624549681409524 0.13176830617518653 -0.26829266471087015 -0.527322731452675 0.34338272842886325 0.26378611910299965
 0.4624549681409399 0.13176830617517635 0.46245496814103443 0.13176830617523538 0.343382728428863 0.26378611910299965 -0.2682926647106784 -0.5273227314526108
167500000.0 -0.2823056696100433 -0.5159178310602696 0.35698153068263294 0.25305022779663167 0.4626620694635736 0.1314338016321049 0.4626620694636459 0.13143380163216178
 0.35698153068263266 0.25305022779663155 -0.2823056696098124 -0.5159178310602032 0.4626620694636578 0.13143380163217194 0.46266206946374044 0.13143380163222057
 0.46266206946357347 0.13143380163210505 0.462662069463658 0.13143380163217203 -0.26943356193442675 -0.5262644633177281 0.3441094230070089 0.2633968600540839
 0.4626620694636454 0.1314338016321617 0.46266206946374017 0.13143380163222054 0.3441094230070086 0.26339686005408375 -0.269433561934235 -0.5262644633176641
168000000.0 -0.2833906694847993 -0.5148519117400084 0.3576556544427387 0.25265027755927233 0.46286750752089856 0.13110081709065563 0.46286750752097106 0.13110081709071245
 0.35765565444273856 0.25265027755927216 -0.2833906694845686 -0.5148519117399423 0.462867507520983 0.13110081709072255 0.4628675075210657 0.13110081709077115
 0.46286750752089834 0.13110081709065557 0.46286750752098316 0.13110081709072247 -0.27056660858744336 -0.5252090042712088 0.34483159354537507 0.263007370090466
 0.46286750752097067 0.13110081709071233 0.4628675075210654 0.1311008170907711 0.34483159354537485 0.2630073700904658 -0.2705666085872514 -0.5252090042711447
168500000.0 -0.28446806965038085 -0.5137890772974681 0.35832547052068964 0.2522503895151376 0.4630712995647137 0.13076934389145378 0.4630712995647864 0.13076934389151063
 0.3583254705206896 0.25225038951513756 -0.28446806965015026 -0.5137890772974022 0.46307129956479826 0.13076934389152065 0.46307129956488124 0.1307693438915692
 0.4630712995647136 0.13076934389145384 0.4630712995647983 0.13076934389152062 -0.271691870974837 -0.524156358042138 0.34554927184513795 0.262617670259801
 0.463071299564786 0.13076934389151051 0.4630712995648809 0.13076934389156916 0.34554927184513773 0.2626176702598008 -0.2716918709746447 -0.5241563580420742
169000000.0 -0.2855379359332235 -0.5127293278325552 0.3589910106709832 0.25185058099939345 0.46327346263098806 0.13043937341687065 0.46327346263106084 0.13043937341692732
 0.35899101067098305 0.25185058099939334 -0.2855379359329927 -0.5127293278324894 0.4632734626310728 0.13043937341693743 0.46327346263115576 0.13043937341698572
 0.4632734626309878 0.13043937341687076 0.46327346263107283 0.13043937341693745 -0.2728094147732485 -0.5231065280545939 0.34626248951100025 0.262227781221426
 0.4632734626310605 0.13043937341692735 0.46327346263115554 0.13043937341698586 0.3462624895110001 0.26222778122142576 -0.2728094147730561 -0.5231065280545302
169500000.0 -0.286600333512348 -0.5116726631827898 0.35965230642628243 0.25145086900092567 0.46347401354290024 0.1301108970912231 0.46347401354297324 0.13011089709127968
 0.3596523064262823 0.25145086900092567 -0.286600333512117 -0.5116726631827241 0.4634740135429852 0.1301108970912897 0.46347401354306833 0.13011089709133805
 0.46347401354290013 0.13011089709122314 0.46347401354298534 0.13011089709128976 -0.2739193050370782 -0.5220595174344975 0.34697127795100485 0.261837723252627
 0.463474013542973 0.13011089709127957 0.4634740135430681 0.130110897091338 0.3469712779510047 0.26183772325262683 -0.2739193050368857 -0.5220595174344341
170000000.0 -0.28765532692598433 -0.5106190829296682 0.36030938909791604 0.2510512701682229 0.4636729689139017 0.12978390638101509 0.4636729689139748 0.12978390638107165
 0.36030938909791593 0.25105127016822276 -0.28765532692575324 -0.5106190829296026 0.4636729689139867 0.12978390638108162 0.46367296891407 0.12978390638112985
 0.4636729689139014 0.12978390638101517 0.46367296891398674 0.12978390638108162 -0.27502160620447785 -0.5210153290162659 0.3476756683764017 0.26144751625481427
 0.4636729689139743 0.1297839063810715 0.4636729689140697 0.12978390638112977 0.34767566837640146 0.2614475162548141 -0.2750216062042853 -0.5210153290162026
170500000.0 -0.28870298007813705 -0.5095685864048936 0.36096228977641576 0.2506518008151619 0.46387034515072784 0.12945839279515914 0.4638703451508011 0.1294583927952158
 0.3609622897764157 0.25065180081516186 -0.28870298007790585 -0.5095685864048282 0.4638703451508131 0.12945839279522567 0.4638703451508967 0.12945839279527382
 0.46387034515072767 0.12945839279515917 0.4638703451508131 0.1294583927952256 -0.27611638210329364 -0.5199739653493382 0.34837569180156447 0.2610571797596
 0.46387034515080083 0.1294583927952156 0.46387034515089637 0.12945839279527377 0.3483756918015643 0.26105717975959986 -0.2761163821031008 -0.5199739653492749
171000000.0 -0.2897433562450893 -0.5085211726964796 0.36161103933209243 0.2502524769267032 0.46406615845636545 0.12913434788518277 0.46406615845643884 0.12913434788523917
 0.3616110393320923 0.2502524769267032 -0.2897433562448578 -0.5085211726964143 0.46406615845645105 0.1291343478852491 0.46406615845653454 0.12913434788529732
 0.4640661584563652 0.12913434788518266 0.4640661584564511 0.12913434788524905 -0.2772036959569641 -0.51893542870457 0.3490713790439593 0.2606667329347871
 0.4640661584564387 0.12913434788523911 0.4640661584565343 0.12913434788529735 0.3490713790439592 0.260666732934787 -0.27720369595677097 -0.5189354287045068
171500000.0 -0.29077651808184857 -0.5074768406547293 0.3622556684156447 0.24985331416449055 0.46426042483296875 0.12881176324541518 0.4642604248330424 0.12881176324547147
 0.36225566841564455 0.24985331416449053 -0.29077651808161714 -0.5074768406546641 0.46426042483305446 0.12881176324548146 0.4642604248331381 0.12881176324552943
 0.46426042483296853 0.12881176324541527 0.4642604248330545 0.12881176324548135 -0.27828361039036953 -0.5178997210805083 0.34976276072415796 0.26027619459026324
 0.46426042483304214 0.12881176324547125 0.4642604248331379 0.12881176324552926 0.3497627607241578 0.2602761945902629 -0.27828361039017663 -0.5178997210804456
172000000.0 -0.2918025276285339 -0.5064355888980895 0.36289620745880363 0.2494543278723625 0.4644531600847317 0.12849063051316056 0.4644531600848056 0.1284906305132169
 0.36289620745880363 0.24945432787236219 -0.2918025276283024 -0.5064355888980249 0.46445316008481763 0.1284906305132264 0.46445316008490145 0.12849063051327442
 0.4644531600847316 0.12849063051316054 0.46445316008481785 0.12849063051322662 -0.2793561874356373 -0.5168668442095399 0.35044986726589933 0.2598855831838064
 0.4644531600848052 0.12849063051321674 0.46445316008490123 0.12849063051327458 0.35044986726589905 0.2598855831838062 -0.27935618743544405 -0.5168668442094769
172500000.0 -0.2928214463167022 -0.5053974158188859 0.36353268667500815 0.2490555330817735 0.4646443798207137 0.12817094136885449 0.46464437982078766 0.12817094136891072
 0.3635326866750078 0.24905553308177333 -0.29282144631647095 -0.5053974158188215 0.46464437982079965 0.12817094136892057 0.46464437982088347 0.1281709413689685
 0.46464437982071355 0.12817094136885437 0.4646443798207998 0.12817094136892032 -0.2804214885378962 -0.5158367995639214 0.35113272889619396 0.259494916826802
 0.4646443798207873 0.1281709413689106 0.46464437982088336 0.12817094136896837 0.35113272889619385 0.259494916826802 -0.28042148853770277 -0.5158367995638584
173000000.0 -0.2938333349756182 -0.5043623195889398 0.36416513606011136 0.24865694451712753 0.4648340994576197 0.12785268753620574 0.4648340994576939 0.1278526875362619
 0.36416513606011125 0.24865694451712744 -0.2938333349753865 -0.5043623195888752 0.46483409945770604 0.1278526875362717 0.46483409945779 0.12785268753631954
 0.46483409945761955 0.1278526875362056 0.46483409945770604 0.1278526875362716 -0.28147957456098727 -0.5148095883616897 0.3518113756454723 0.2591042132898706
 0.46483409945769355 0.1278526875362617 0.46483409945778975 0.1278526875363194 0.3518113756454721 0.25910421328987054 -0.2814795745607938 -0.514809588361627
173500000.0 -0.29483825383846374 -0.5033302981650684 0.36479358539311857 0.2482585766010242 0.4650223342225387 0.1275358607823226 0.4650223342226127 0.12753586078237855
 0.3647935853931186 0.24825857660102407 -0.294838253838232 -0.503330298165004 0.46502233422262507 0.1275358607823884 0.46502233422270906 0.12753586078243598
 0.4650223342225384 0.12753586078232257 0.46502233422262507 0.1275358607823884 -0.28253050579312616 -0.5137852115724603 0.3524858373477734 0.25871349000840976
 0.4650223342226126 0.12753586078237839 0.4650223342227089 0.127535860782436 0.3524858373477733 0.25871349000840965 -0.282530505792933 -0.513785211572398
174000000.0 -0.29583626254848944 -0.502301349294472 0.36541806423695095 0.24786044345942154 0.46520909915563524 0.12722045291782705 0.4652090991557095 0.12722045291788303
 0.36541806423695083 0.2478604434594215 -0.29583626254825757 -0.5023013492944078 0.46520909915572173 0.12722045291789286 0.4652090991558059 0.12722045291794037
 0.46520909915563513 0.12722045291782705 0.46520909915572184 0.12722045291789272 -0.2835743419525198 -0.512763669923108 0.3531561436409735 0.25832276408805105
 0.4652090991557092 0.12722045291788292 0.4652090991558057 0.12722045291794035 0.35315614364097325 0.258322764088051 -0.2835743419523263 -0.5127636699230457
174500000.0 -0.296827420165109 -0.5012754705200119 0.36603860193923715 0.24746255892671154 0.4653944091128018 0.12690645579695345 0.4653944091128761 0.1269064557970094
 0.36603860193923715 0.24746255892671137 -0.29682742016487706 -0.5012754705199479 0.4653944091128886 0.12690645579701906 0.46539440911297275 0.12690645579706655
 0.4653944091128015 0.1269064557969534 0.4653944091128885 0.12690645579701895 -0.2846111421929327 -0.511744963903339 0.35382232396705293 0.2579320523100322
 0.4653944091128759 0.1269064557970092 0.4653944091129724 0.1269064557970666 0.35382232396705277 0.2579320523100322 -0.2846111421927391 -0.5117449639032767
175000000.0 -0.2978117851699348 -0.5002526591853753 0.36665522763313246 0.24706493655071493 0.46557827876826685 0.12659386131763456 0.46557827876834146 0.12659386131769035
 0.3666552276331323 0.24706493655071485 -0.29781178516970275 -0.5002526591853114 0.4655782787683538 0.12659386131770023 0.4655782787684381 0.1265938613177476
 0.4655782787682666 0.12659386131763462 0.46557827876835384 0.12659386131770015 -0.2856409651092111 -0.5107290937711525 0.35448440757240096 0.2575413711364858
 0.46557827876834107 0.12659386131769004 0.4655782787684379 0.12659386131774739 0.3544844075724009 0.25754137113648556 -0.2856409651090177 -0.5107290937710908
175500000.0 -0.2987894154727566 -0.4992329124401371 0.3672679702381606 0.2466675895975951 0.46576072261716334 0.12628266142157632 0.4657607226172382 0.12628266142163203
 0.36726797023816043 0.2466675895975951 -0.29878941547252436 -0.4992329124400731 0.46576072261725043 0.12628266142164196 0.46576072261733514 0.1262826614216892
 0.46576072261716317 0.12628266142157635 0.4657607226172505 0.12628266142164182 -0.286663868742758 -0.5097160595581959 0.3551424235081542 0.2571507367156477
 0.465760722617238 0.12628266142163191 0.46576072261733487 0.12628266142168912 0.35514242350815406 0.25715073671564753 -0.28666386874256405 -0.5097160595581341
176000000.0 -0.29976036841746095 -0.4982162272447147 0.36787685846107987 0.24627053105669008 0.4659417549780556 0.12597284809431888 0.4659417549781305 0.1259728480943746
 0.36787685846107987 0.24627053105668995 -0.29976036841722864 -0.4982162272446511 0.465941754978143 0.1259728480943842 0.46594175497822754 0.12597284809443152
 0.46594175497805546 0.12597284809431872 0.46594175497814305 0.12597284809438408 -0.28767991058695946 -0.5087058610750141 0.3557964006305704 0.25676016488698294
 0.46594175497813045 0.12597284809437448 0.4659417549782275 0.12597284809443157 0.35579640063057033 0.25676016488698306 -0.28767991058676523 -0.5087058610749522
176500000.0 -0.30072470078789726 -0.49720260037522146 0.36848192079677333 0.24587377364526522 0.46612138999542735 0.12566441336528578 0.46612138999550234 0.12566441336534134
 0.3684819207967732 0.24587377364526516 -0.30072470078766494 -0.49720260037515807 0.4661213899955146 0.12566441336535106 0.4661213899955993 0.12566441336539824
 0.4661213899954271 0.12566441336528586 0.46612138999551467 0.12566441336535103 -0.2886891475925683 -0.5076984979161961 0.35644636760143605 0.2563696711862334
 0.466121389995502 0.12566441336534134 0.4661213899955991 0.1256644133653983 0.35644636760143594 0.25636967118623344 -0.2886891475923743 -0.5076984979161344
177000000.0 -0.30168246881368443 -0.4961920284282189 0.3690831855291567 0.24547732981319006 0.4662996416421287 0.12535734930782355 0.46629964164220383 0.12535734930787898
 0.3690831855291566 0.24547732981318993 -0.3016824688134515 -0.4961920284281555 0.4662996416422164 0.12535734930788878 0.4662996416423012 0.12535734930793577
 0.46629964164212845 0.12535734930782338 0.4662996416422165 0.12535734930788864 -0.2896916361730387 -0.5066939694654209 0.35709235288850333 0.25597927085038547
 0.4662996416422035 0.12535734930787878 0.466299641642301 0.12535734930793574 0.35709235288850316 0.25597927085038547 -0.2896916361728447 -0.5066939694653594
177500000.0 -0.3026337281759597 -0.4951845078253706 0.3696806807321121 0.24508121174753614 0.4664765237217886 0.12505164803922755 0.46647652372186393 0.12505164803928298
 0.3696806807321119 0.24508121174753594 -0.3026337281757271 -0.49518450782530754 0.4664765237218764 0.1250516480392926 0.46647652372196124 0.1250516480393396
 0.4664765237217883 0.1250516480392275 0.4664765237218765 0.12505164803929267 -0.290687432209815 -0.5056922749004026 0.35773438476595915 0.2555889788225617
 0.4664765237218636 0.12505164803928284 0.46647652372196113 0.12505164803933969 0.35773438476595903 0.25558897882256165 -0.29068743220962073 -0.5056922749003412
178000000.0 -0.30357853401307644 -0.4941800348179994 0.3702744342704356 0.2446854313771012 0.4666520498711851 0.12474730172076055 0.4666520498712606 0.12474730172081597
 0.3702744342704355 0.2446854313771011 -0.3035785340128439 -0.49418003481793643 0.466652049871273 0.12474730172082553 0.466652049871358 0.12474730172087253
 0.4666520498711848 0.12474730172076058 0.46665204987127296 0.12474730172082546 -0.29167659105757293 -0.5046934131977405 0.358372491314924 0.2551988097568359
 0.4666520498712603 0.1247473017208158 0.4666520498713578 0.12474730172087246 0.35837249131492394 0.25519880975683584 -0.2916765910573784 -0.5046934131976794
178500000.0 -0.304516940926241 -0.4931786054915498 0.3708644738008082 0.24429000037685814 0.46682623356258107 0.12444430255765836 0.46682623356265673 0.1244443025577136
 0.37086447380080817 0.24429000037685814 -0.3045169409260084 -0.49317860549148684 0.466826233562669 0.12444430255772324 0.46682623356275427 0.12444430255777009
 0.4668262335625808 0.12444430255765841 0.46682623356266895 0.12444430255772312 -0.2926591675494176 -0.5036973831376707 0.35900670042397653 0.2548087780229728
 0.46682623356265623 0.1244443025577135 0.46682623356275377 0.12444430255776999 0.35900670042397637 0.2548087780229727 -0.29265916754922305 -0.5036973831376097
179000000.0 -0.30544900298509686 -0.492180215769957 0.3714508267727807 0.24389493017233074 0.46699908810602236 0.12414264279912693 0.46699908810609814 0.12414264279918208
 0.37145082677278063 0.24389493017233058 -0.30544900298486394 -0.49218021576989435 0.4669990881061107 0.12414264279919165 0.46699908810619595 0.12414264279923842
 0.46699908810602214 0.12414264279912694 0.46699908810611074 0.12414264279919177 -0.2936352160020322 -0.5027041833087263 0.3596370397897078 0.25441889771109377
 0.46699908810609786 0.1241426427991819 0.46699908810619567 0.12414264279923844 0.35963703978970746 0.25441889771109355 -0.29363521600183756 -0.5027041833086654
179500000.0 -0.30637477373325234 -0.491184861419927 0.37203352042977755 0.2435002319438976 0.4671706266516017 0.12384231473832995 0.46717062665167763 0.12384231473838508
 0.37203352042977744 0.24350023194389744 -0.3063747737330196 -0.4911848614198646 0.46717062665169007 0.12384231473839459 0.46717062665177544 0.12384231473844119
 0.46717062665160153 0.12384231473832989 0.46717062665169007 0.1238423147383945 -0.29460479022078234 -0.5017138121123054 0.36026353691729945 0.2540291826362693
 0.4671706266516773 0.12384231473838478 0.4671706266517753 0.12384231473844108 0.3602635369172993 0.2540291826362691 -0.2946047902205878 -0.5017138121122446
180000000.0 -0.3072943061937552 -0.49019253805512564 0.3726125818101154 0.24310591663102513 0.46734086219168397 0.12354331071236656 0.46734086219176 0.12354331071242165
 0.37261258181011525 0.24310591663102496 -0.30729430619352216 -0.49019253805506324 0.4673408621917724 0.12354331071243112 0.46734086219185805 0.12354331071247773
 0.46734086219168375 0.12354331071236653 0.4673408621917725 0.12354331071243108 -0.2955679435047761 -0.5007262677671466 0.3608862191211281 0.2536396463430396
 0.4673408621917597 0.12354331071242143 0.4673408621918577 0.12354331071247766 0.36088621912112795 0.2536396463430395 -0.2955679435045812 -0.500726267767086
180500000.0 -0.30820765287451035 -0.48920324114027947 0.37318803774803705 0.2427119949364307 0.46750980756310073 0.12324562310224166 0.4675098075631767 0.1232456231022966
 0.3731880377480369 0.2427119949364307 -0.30820765287427737 -0.48920324114021707 0.46750980756318944 0.12324562310230626 0.46750980756327476 0.12324562310235279
 0.4675098075631004 0.12324562310224174 0.46750980756318933 0.12324562310230629 -0.2965247286518747 -0.49974154831371975 0.36150511352539305 0.2532503021098649
 0.4675098075631764 0.12324562310229666 0.46750980756327465 0.12324562310235287 0.361505113525393 0.2532503021098649 -0.29652472865167984 -0.4997415483136592
181000000.0 -0.30911486577364644 -0.48821696599519376 0.37375991487475924 0.2423184773301776 0.46767747544930716 0.1229492443328264 0.4676774754493835 0.12294924433288147
 0.3737599148747591 0.24231847733017756 -0.309114865773413 -0.4882169659951314 0.4676774754493961 0.12294924433289099 0.4676774754494819 0.12294924433293743
 0.46767747544930693 0.1229492443328265 0.46767747544939614 0.12294924433289095 -0.2974751979636618 -0.49875965161852703 0.3621202470647662 0.2528611629535047
 0.4676774754493834 0.12294924433288136 0.4676774754494816 0.12294924433293752 0.36212024706476614 0.25286116295350464 -0.29747519796346633 -0.4987596516184665
181500000.0 -0.310015996384825 -0.48723370779868486 0.37432823961953426 0.24192537405370143 0.46784387838250885 0.12265416687281164 0.46784387838258534 0.12265416687286648
 0.3743282396195343 0.24192537405370146 -0.31001599638459165 -0.48723370779862285 0.46784387838259806 0.12265416687287604 0.4678438783826837 0.12265416687292233
 0.4678438783825087 0.12265416687281175 0.467843878382598 0.12265416687287602 -0.2984194032503641 -0.49778057537831905 0.36273164648506523 0.25247224163332954
 0.4678438783825851 0.12265416687286639 0.46784387838268354 0.12265416687292235 0.36273164648506506 0.2524722416333294 -0.29841940325016897 -0.4977805753782589
182000000.0 -0.3109110957025006 -0.4862534615924306 0.3748930382107235 0.2415326951237699 0.46800902874575184 0.1223603832346515 0.4680090287458283 0.12236038323470609
 0.37489303821072334 0.24153269512376974 -0.310911095702267 -0.4862534615923687 0.4680090287458412 0.12236038323471575 0.46800902874592687 0.12236038323476185
 0.46800902874575157 0.12236038323465136 0.4680090287458412 0.12236038323471561 -0.2993573958357313 -0.49680431712422984 0.36333933834394627 0.2520835506555627
 0.4680090287458279 0.12236038323470584 0.4680090287459267 0.12236038323476184 0.3633393383439461 0.25208355065556265 -0.2993573958355364 -0.4968043171241698
182500000.0 -0.31180021422712395 -0.48527622228473927 0.37545433667688344 0.24114045033637868 0.46817293877498334 0.12206788597450256 0.46817293877505994 0.12206788597455712
 0.3754543366768834 0.2411404503363786 -0.3118002142268903 -0.48527622228467754 0.46817293877507277 0.1220678859745667 0.4681729387751587 0.12206788597461284
 0.46817293877498317 0.12206788597450241 0.468172938775073 0.12206788597456658 -0.30028922656186663 -0.4958308742258259 0.3639433490116182 0.25169510227745884
 0.4681729387750597 0.12206788597455692 0.4681729387751585 0.12206788597461278 0.36394334901161807 0.2516951022774588 -0.30028922656167156 -0.4958308742257659
183000000.0 -0.31268340197029476 -0.4843019846542414 0.3760121608478622 0.24074864927058137 0.46833562056107925 0.1217766676921535 0.4683356205611561 0.12177666769220806
 0.37601216084786215 0.2407486492705813 -0.3126834019700614 -0.48430198465418 0.4683356205611688 0.12177666769221761 0.46833562056125483 0.12177666769226361
 0.46833562056107914 0.12177666769215345 0.468335620561169 0.12177666769221752 -0.3012149457940149 -0.4948602438950788 0.36454370467157426 0.2513069085114124
 0.46833562056115574 0.12177666769220788 0.46833562056125466 0.12177666769226357 0.36454370467157404 0.2513069085114124 -0.3012149457938198 -0.494860243895019
183500000.0 -0.3135607084598622 -0.4833307433535025 0.37656653635590714 0.24035730129225558 0.46849708605184054 0.1214867210309479 0.46849708605191753 0.12148672103100236
 0.3765665363559069 0.24035730129225544 -0.3135607084596289 -0.48333074335344123 0.4684970860519301 0.12148672103101177 0.4684970860520163 0.12148672103105779
 0.46849708605184043 0.12148672103094788 0.4684970860519303 0.12148672103101174 -0.30213460342530735 -0.4938924231902573 0.3651404313213441 0.25091898112900396
 0.46849708605191726 0.12148672103100228 0.46849708605201607 0.12148672103105776 0.36514043132134394 0.25091898112900396 -0.30213460342511195 -0.49389242319019755
184000000.0 -0.3144321827449721 -0.4823624929125604 0.37711748863678113 0.23996641555780882 0.4686573470539581 0.1211980386777016 0.4686573470540353 0.12119803867775601
 0.37711748863678113 0.23996641555780868 -0.31443218274473833 -0.48236249291249916 0.468657347054048 0.12119803867776538 0.4686573470541342 0.12119803867781123
 0.46865734705395795 0.12119803867770158 0.468657347054048 0.12119803867776532 -0.30304824888146015 -0.49292740901974 0.3657335547732611 0.25053133166498226
 0.46865734705403495 0.1211980386777558 0.4686573470541339 0.12119803867781127 0.36573355477326086 0.25053133166498215 -0.30304824888126464 -0.49292740901968046
184500000.0 -0.3152978734010637 -0.4813972277423887 0.37766504293089015 0.23957600101781962 0.4688164152349494 0.12091061336261148 0.4688164152350267 0.12091061336266586
 0.37766504293089004 0.2395760010178195 -0.31529787340083015 -0.48139722774232774 0.46881641523503925 0.1209106133626752 0.4688164152351257 0.1209106133627211
 0.4688164152349493 0.12091061336261151 0.4688164152350395 0.12091061336267511 -0.30395593112543046 -0.4919651981457569 0.3663231006552485 0.25014397142118155
 0.4688164152350263 0.12091061336266565 0.46881641523512535 0.1209106133627211 0.36632310065524826 0.2501439714211815 -0.3039559311252347 -0.49196519814569734
185000000.0 -0.31615782853481555 -0.4804349421382869 0.3782092242844158 0.23918606642062187 0.4689743021250627 0.12062443785916105 0.4689743021251399 0.12062443785921517
 0.37820922428441545 0.23918606642062173 -0.316157828534582 -0.4804349421382261 0.4689743021251527 0.12062443785922469 0.46897430212523905 0.12062443785927035
 0.46897430212506225 0.12062443785916113 0.4689743021251528 0.12062443785922473 -0.30485769866202783 -0.49100578718805143 0.3669090944116197 0.2497569114703804
 0.46897430212513946 0.12062443785921509 0.4689743021252388 0.12062443785927036 0.3669090944116194 0.24975691147038026 -0.30485769866183243 -0.49100578718799226
185500000.0 -0.3170120957890404 -0.4794756302831996 0.37875005755045893 0.2387966203158261 0.4691310191191531 0.1203395049840163 0.46913101911923066 0.12033950498407052
 0.3787500575504589 0.23879662031582602 -0.31701209578880646 -0.47947563028313894 0.46913101911924343 0.12033950498407978 0.4691310191193301 0.12033950498412552
 0.46913101911915284 0.12033950498401629 0.4691310191192434 0.12033950498407983 -0.3057535995424845 -0.49004917262747405 0.3674915613038945 0.24937016266009426
 0.4691310191192303 0.12033950498407035 0.4691310191193297 0.12033950498412552 0.3674915613038942 0.24937016266009412 -0.3057535995422884 -0.4900491726274148
186000000.0 -0.31786072234752866 -0.4785192862509639 0.37928756739018976 0.23840767105778546 0.46928657747853153 0.12005580759692006 0.46928657747860913 0.12005580759697412
 0.3792875673901896 0.23840767105778535 -0.31786072234729446 -0.4785192862509033 0.469286577478622 0.12005580759698353 0.46928657747870867 0.12005580759702915
 0.4692865774785314 0.12005580759692024 0.4692865774786221 0.12005580759698364 -0.3066436813689773 -0.48909535080949856 0.3680705264116303 0.24898373561631432
 0.4692865774786089 0.1200558075969741 0.46928657747870844 0.12005580759702923 0.36807052641163013 0.24898373561631418 -0.3066436813687816 -0.48909535080943967
186500000.0 -0.3187037549398431 -0.47756590400949156 0.3798217782740029 0.2380192268090013 0.46944098833278214 0.11977333860057682 0.46944098833285997 0.11977333860063082
 0.37982177827400265 0.23801922680900123 -0.31870375493960884 -0.4775659040094309 0.46944098833287273 0.1197733386006403 0.4694409883329596 0.11977333860068579
 0.469440988332782 0.11977333860057689 0.46944098833287284 0.11977333860064024 -0.30752799129911457 -0.4881443179476762 0.3686460146332661 0.24859764074717985
 0.4694409883328595 0.11977333860063066 0.4694409883329593 0.11977333860068574 0.3686460146332658 0.2485976407471797 -0.3075279912989187 -0.4881443179476173
187000000.0 -0.3195412398460651 -0.4766154774238798 0.3803527144826804 0.2376312955434744 0.46959426268155396 0.11949209094053581 0.46959426268163196 0.11949209094058973
 0.3803527144826804 0.23763129554347429 -0.3195412398458307 -0.4766154774238193 0.46959426268164495 0.11949209094059914 0.4695942626817317 0.11949209094064446
 0.4695942626815539 0.11949209094053578 0.46959426268164484 0.11949209094059907 -0.3084065760503717 -0.4871960701270112 0.3692180506869789 0.24821188824659968
 0.4695942626816317 0.11949209094058959 0.46959426268173154 0.11949209094064446 0.3692180506869787 0.24821188824659954 -0.30840657605017563 -0.48719607012695243
187500000.0 -0.32037322290148856 -0.47566800025946093 0.38088040010856083 0.2372438850499979 0.46974641139632567 0.11921205760506529 0.46974641139640366 0.11921205760511913
 0.3808804001085607 0.23724388504999785 -0.3203732229012542 -0.47566800025940054 0.4697464113964165 0.11921205760512855 0.4697464113965036 0.11921205760517391
 0.46974641139632534 0.11921205760506531 0.4697464113964165 0.11921205760512847 -0.3092794819044914 -0.48625060330727765 0.3697866591115551 0.24782648809780852
 0.46974641139640333 0.11921205760511898 0.4697464113965032 0.1192120576051738 0.369786659111555 0.24782648809780833 -0.30927948190429516 -0.4862506033072191
188000000.0 -0.3211997495012684 -0.47472346618478184 0.3814048590567105 0.23685700293539885 0.4698974452221407 0.11893323162502707 0.4698974452222187 0.11893323162508082
 0.3814048590567104 0.23685700293539874 -0.3211997495010344 -0.4747234661847219 0.4698974452222316 0.11893323162509008 0.46989744522231847 0.11893323162513529
 0.46989744522214044 0.11893323162502693 0.46989744522223165 0.11893323162508994 -0.31014675471183706 -0.48530791332626355 0.37035186426727074 0.24744145007687415
 0.4698974452222185 0.11893323162508063 0.4698974452223183 0.11893323162513528 0.3703518642672708 0.24744145007687413 -0.310146754711641 -0.485307913326205
188500000.0 -0.3220208646050184 -0.47378186877452705 0.38192611504610313 0.23647065662772113 0.4700473747793192 0.11865560607373964 0.4700473747793975 0.11865560607379334
 0.3819261150461029 0.2364706566277209 -0.32202086460478413 -0.47378186877446715 0.4700473747794103 0.11865560607380249 0.4700473747794975 0.11865560607384779
 0.4700473747793189 0.11865560607373958 0.47004737477941033 0.11865560607380247 -0.3110084398957081 -0.48436799590295415 0.37091369033678406 0.24705678375614187
 0.47004737477939706 0.11865560607379311 0.47004737477949726 0.11865560607384767 0.37091369033678384 0.24705678375614173 -0.3110084398955115 -0.48436799590289575
189000000.0 -0.32283661274136216 -0.4728432015123723 0.38244419161080034 0.23608485337935975 0.4701962105651422 0.11837917406684399 0.47019621056522043 0.11837917406689762
 0.3824441916108002 0.2360848533793597 -0.32283661274112757 -0.47284320151231246 0.4701962105652336 0.11837917406690696 0.4701962105653206 0.11837917406695204
 0.47019621056514205 0.11837917406684402 0.47019621056523375 0.11837917406690686 -0.3118645824566085 -0.48343084664064856 0.37147216132603833 0.24667249850762968
 0.4701962105652202 0.11837917406689763 0.47019621056532046 0.11837917406695221 0.37147216132603816 0.24667249850762987 -0.3118645824564122 -0.48343084664059
189500000.0 -0.323647038012436 -0.47190745779378296 0.38295911210113837 0.23569960027014075 0.47034396295551 0.11810392876216037 0.47034396295558856 0.11810392876221396
 0.38295911210113814 0.23569960027014047 -0.3236470380122015 -0.4719074577937235 0.4703439629556015 0.118103928762223 0.47034396295568875 0.11810392876226815
 0.4703439629555098 0.11810392876216028 0.4703439629556015 0.11810392876222303 -0.31271522697648174 -0.482496461030015 0.37202730106517545 0.24628860350636625
 0.4703439629555883 0.11810392876221384 0.47034396295568864 0.1181039287622682 0.3720273010651754 0.2462886035063663 -0.31271522697628507 -0.4824964610299566
190000000.0 -0.3244521840983459 -0.47097463092875125 0.3834708996849158 0.23531490421034834 0.47049064220657594 0.11782986335954168 0.47049064220665465 0.11782986335959521
 0.3834708996849156 0.2353149042103481 -0.32445218409811116 -0.47097463092869185 0.47049064220666764 0.11782986335960437 0.470490642206755 0.1178298633596493
 0.47049064220657577 0.11782986335954154 0.4704906422066678 0.11782986335960423 -0.3135604176228957 -0.4815648344520852 0.3725791332094573 0.2459051077336758
 0.4704906422066543 0.11782986335959492 0.47049064220675485 0.11782986335964929 0.37257913320945707 0.24590510773367572 -0.31356041762269904 -0.481564834452027
190500000.0 -0.32525209426157553 -0.4700447141444737 0.3839795773485861 0.23493077194370546 0.4706362584563556 0.11755697110072556 0.4706362584564343 0.11755697110077894
 0.38397957734858595 0.2349307719437053 -0.32525209426134066 -0.47004471414441445 0.4706362584564474 0.11755697110078818 0.47063625845653473 0.11755697110083303
 0.4706362584563555 0.11755697110072551 0.4706362584564475 0.11755697110078817 -0.3144001981531938 -0.4806359621811869 0.37312768124019613 0.2455220199804124
 0.47063625845643403 0.11755697110077887 0.4706362584565347 0.11755697110083313 0.37312768124019596 0.24552201998041245 -0.3144001981529972 -0.48063596218112886
191000000.0 -0.32604681135135033 -0.46911770058797364 0.3844851678984503 0.2345472100502998 0.4707808217263106 0.11728524526917924 0.4707808217263896 0.11728524526923262
 0.3844851678984502 0.23454721005029985 -0.3260468113511156 -0.46911770058791424 0.4707808217264025 0.11728524526924183 0.4707808217264901 0.1172852452692867
 0.4707808217263104 0.1172852452691794 0.4707808217264025 0.11728524526924183 -0.31523461191860325 -0.4797098393878198 0.37367296846569475 0.24513934885014022
 0.47078082172638935 0.11728524526923245 0.4707808217264899 0.11728524526928653 0.37367296846569453 0.24513934885013997 -0.31523461191840635 -0.4797098393877622
191500000.0 -0.32683637780795427 -0.46819358332866523 0.38498769396185445 0.23416422494946518 0.47092434192291044 0.11701467918994385 0.47092434192298943 0.117014679189997
 0.3849876939618543 0.23416422494946507 -0.3268363778077191 -0.46819358332860617 0.4709243419230026 0.1170146791900063 0.4709243419230902 0.11701467919005101
 0.4709243419229102 0.11701467918994375 0.4709243419230027 0.11701467919000627 -0.3160637018683011 -0.4787864611414707 0.3742150180221929 0.2447571027622644
 0.470924341922989 0.11701467918999689 0.4709243419230898 0.11701467919005096 0.3742150180221927 0.2447571027622643 -0.3160637018681044 -0.478786461141413
192000000.0 -0.3276208356670004 -0.46727235536086614 0.38548717798838517 0.2337818229026109 0.47106682883916823 0.11674526622947277 0.4710668288392475 0.11674526622952594
 0.38548717798838505 0.23378182290261082 -0.3276208356667658 -0.4672723553608072 0.47106682883926015 0.11674526622953496 0.4710668288393481 0.11674526622957968
 0.471066828839168 0.11674526622947268 0.47106682883926027 0.11674526622953482 -0.31688751055344466 -0.47786582241337394 0.37475385287482077 0.24437528995511226
 0.47106682883924705 0.11674526622952568 0.47106682883934775 0.11674526622957955 0.3747538528748205 0.24437528995511223 -0.31688751055324754 -0.47786582241331627
192500000.0 -0.3284002265636593 -0.46635400960625223 0.38598364225106974 0.23340001001600688 0.47120829215615506 0.11647699979546865 0.4712082921562343 0.11647699979552172
 0.3859836422510696 0.2334000100160068 -0.3284002265634244 -0.46635400960619333 0.4712082921562474 0.11647699979553093 0.47120829215633514 0.11647699979557541
 0.4712082921561548 0.11647699979546869 0.47120829215624743 0.11647699979553092 -0.31770608013115764 -0.4769479180792148 0.3752894958185594 0.2439939184889635
 0.47120829215623405 0.11647699979552154 0.47120829215633503 0.1164769997955754 0.37528949581855936 0.24399391848896332 -0.3177060801309606 -0.47694791807915754
193000000.0 -0.3291745917368385 -0.46543853891626163 0.38647710884757497 0.23301879224352126 0.4713487414444919 0.11620987333671758 0.4713487414445714 0.1162098733367706
 0.3864771088475748 0.23301879224352104 -0.3291745917366033 -0.46543853891620307 0.47134874144458444 0.11620987333677964 0.4713487414446724 0.11620987333682412
 0.4713487414444917 0.11620987333671759 0.47134874144458455 0.11620987333677968 -0.3185194523684812 -0.4760327429217799 0.37582196947920915 0.24361299624903335
 0.47134874144457106 0.11620987333677037 0.47134874144467226 0.11620987333682413 0.375821969479209 0.24361299624903315 -0.31851945236828405 -0.4760327429217227
193500000.0 -0.32994397203332076 -0.4645259360744482 0.3869675997014067 0.23263817538931034 0.47148818616581706 0.11594388034291776 0.4714881861658967 0.11594388034297072
 0.3869675997014066 0.23263817538931014 -0.3299439720330859 -0.4645259360743898 0.47148818616590954 0.11594388034297973 0.47148818616599775 0.11594388034302404
 0.471488186165817 0.11594388034291779 0.4714881861659099 0.11594388034297974 -0.31932766864628276 -0.4751202916335514 0.3763512963143601 0.24323253094840735
 0.47148818616589633 0.11594388034297036 0.4714881861659975 0.11594388034302405 0.3763512963143598 0.24323253094840716 -0.3193276686460856 -0.4751202916334944
194000000.0 -0.3307084079118585 -0.4636161937987828 0.38745513656311076 0.23225816511046612 0.47162663567423385 0.11567901434450797 0.4716266356743134 0.11567901434456078
 0.3874551365631108 0.23225816511046618 -0.3307084079116234 -0.4636161937987244 0.4716266356743266 0.11567901434457 0.4716266356744147 0.11567901434461421
 0.47162663567423363 0.11567901434450802 0.47162663567432644 0.11567901434456991 -0.3201307699631279 -0.4742105588192518 0.3768774986143714 0.2428525301309291
 0.4716266356743132 0.11567901434456074 0.47162663567441426 0.1156790143446142 0.37687749861437136 0.242852530130929 -0.3201307699629306 -0.4742105588191947
194500000.0 -0.3314679394472222 -0.46270930474390387 0.3879397410114721 0.23187876691961884 0.4717640992177346 0.11541526891249333 0.4717640992178144 0.11541526891254607
 0.38793974101147205 0.23187876691961887 -0.3314679394469869 -0.4627093047438455 0.4717640992178275 0.11541526891255525 0.4717640992179158 0.11541526891259951
 0.4717640992177346 0.11541526891249333 0.4717640992178275 0.11541526891255514 -0.32092879693911286 -0.4733035389983335 0.37740059850335445 0.2424730011740425
 0.4717640992178142 0.11541526891254593 0.47176409921791557 0.1154152689125993 0.37740059850335417 0.24247300117404236 -0.3209287969389154 -0.47330353899827654
195000000.0 -0.33222260633420747 -0.4618052615033221 0.3884214344547148 0.23149998618749404 0.47190058593960615 0.11515263765826644 0.4719005859396857 0.11515263765831901
 0.3884214344547147 0.2314999861874939 -0.3322226063339722 -0.46180526150326406 0.47190058593969914 0.11515263765832805 0.4719005859397872 0.11515263765837222
 0.4719005859396057 0.11515263765826629 0.4719005859396989 0.11515263765832798 -0.32172178981965993 -0.472399226607421 0.37792061794015847 0.24209395129158662
 0.4719005859396856 0.11515263765831882 0.471900585939787 0.11515263765837219 0.37792061794015863 0.24209395129158653 -0.3217217898194625 -0.47239922660736416
195500000.0 -0.33297244789160035 -0.460904056611577 0.3889002381316997 0.2311218281454284 0.4720361048798098 0.1148911142334275 0.4720361048798897 0.11489111423348009
 0.38890023813169966 0.23112182814542837 -0.332972447891365 -0.4609040566115189 0.47203610487990305 0.11489111423348926 0.4720361048799913 0.11489111423353333
 0.4720361048798097 0.1148911142334276 0.472036104879903 0.11489111423348923 -0.32250978847927364 -0.47149761600270174 0.3784375787193642 0.2417153875365472
 0.47203610487988945 0.11489111423348007 0.47203610487999115 0.11489111423353336 0.37843757871936423 0.24171538753654714 -0.32250978847907613 -0.47149761600264506
196000000.0 -0.333717503066098 -0.4600056825463433 0.38937617311312317 0.23074429788784412 0.47217066497634685 0.11463069232960382 0.47217066497642685 0.1146306923296563
 0.38937617311312295 0.23074429788784412 -0.33371750306586245 -0.46000568254628516 0.47217066497643995 0.11463069232966548 0.47217066497652843 0.11463069232970942
 0.47217066497634663 0.11463069232960404 0.47217066497644 0.11463069232966559 -0.32329283242526047 -0.47059870146226895 0.3789515024722775 0.24133731680376425
 0.47217066497642646 0.11463069232965624 0.47217066497652815 0.11463069232970934 0.37895150247227727 0.24133731680376405 -0.32329283242506307 -0.4705987014622125
196500000.0 -0.3344578104361881 -0.4591101317304959 0.3898492603027124 0.23036740037468004 0.4723042750665972 0.1143713656782635 0.4723042750666775 0.11437136567831604
 0.3898492603027122 0.23036740037467993 -0.3344578104359527 -0.45911013173043813 0.4723042750666905 0.11437136567832504 0.4723042750667792 0.1143713656783689
 0.47230427506659695 0.11437136567826355 0.4723042750666906 0.11437136567832498 -0.3240709608014121 -0.46970247718841596 0.3794624106679276 0.24095974583259408
 0.47230427506667716 0.11437136567831582 0.4723042750667789 0.11437136567836893 0.37946241066792746 0.24095974583259383 -0.3240709608012142 -0.46970247718835956
197000000.0 -0.3351934082159896 -0.45821739653412885 0.39031952043842016 0.22999114043378197 0.4724369438886439 0.11411312805053037 0.472436943888724 0.11411312805058259
 0.3903195204384201 0.22999114043378185 -0.33519340821575394 -0.45821739653407123 0.4724369438887373 0.11411312805059162 0.4724369438888258 0.11411312805063543
 0.47243694388864366 0.11411312805053034 0.47243694388873736 0.1141131280505917 -0.32484421239164746 -0.46880893730988404 0.37997032461406977 0.2405826812095313
 0.4724369438887237 0.11411312805058256 0.4724369438888256 0.11411312805063552 0.37997032461406965 0.24058268120953127 -0.32484421239145006 -0.46880893730982776
197500000.0 -0.3359243342590466 -0.45732746927652834 0.3907869740936179 0.2296155227632549 0.47256868008257313 0.11385597325699472 0.47256868008265374 0.11385597325704705
 0.3907869740936178 0.2296155227632547 -0.3359243342588105 -0.4573274692764709 0.47256868008266695 0.11385597325705603 0.47256868008275577 0.1138559732570997
 0.472568680082573 0.11385597325699459 0.47256868008266695 0.11385597325705595 -0.3256126256236259 -0.4679180758840658 0.3804752654581885 0.24020612937078614
 0.47256868008265324 0.11385597325704681 0.47256868008275543 0.11385597325709974 0.3804752654581882 0.240206129370786 -0.32561262562342796 -0.46791807588400947
198000000.0 -0.3366506260620876 -0.4564403422281049 0.39125164167828574 0.22924055193377346 0.47269949219175983 0.11359989514752497 0.4726994921918404 0.11359989514757708
 0.3912516416782855 0.2292405519337733 -0.336650626061852 -0.4564403422280476 0.47269949219185353 0.11359989514758603 0.47269949219194235 0.11359989514762972
 0.4726994921917597 0.11359989514752497 0.4726994921918538 0.11359989514758606 -0.3263762385723145 -0.46702988689916 0.3809772541885042 0.2398300966048225
 0.47269949219184004 0.11359989514757696 0.47269949219194224 0.11359989514762966 0.3809772541885039 0.23983009660482238 -0.32637623857211673 -0.4670298868991038
198500000.0 -0.3373723207687408 -0.4555560076122824 0.3917135434402008 0.2288662323908549 0.4728293886641287 0.11334488761107402 0.4728293886642093 0.1133448876111262
 0.3917135434402007 0.22886623239085496 -0.33737232076850493 -0.4555560076122249 0.47282938866422264 0.11334488761113523 0.4728293886643115 0.11334488761117896
 0.4728293886641284 0.11334488761107414 0.47282938866422247 0.11334488761113519 -0.3271350889635293 -0.466144364276286 0.38147631163498036 0.23945458905485287
 0.4728293886642091 0.11334488761112606 0.4728293886643113 0.11334488761117877 0.3814763116349804 0.23945458905485262 -0.327135088963331 -0.4661443642762302
199000000.0 -0.3380894551732096 -0.4546744576073457 0.39217269946612326 0.22849256845709356 0.4729583778534017 0.11309094457548796 0.4729583778534825 0.11309094457554003
 0.3921726994661232 0.22849256845709334 -0.3380894551729738 -0.45467445760728875 0.4729583778534959 0.11309094457554884 0.47295837785358474 0.11309094457559239
 0.47295837785340145 0.11309094457548781 0.4729583778534958 0.1130909445755488 -0.32788921417743033 -0.4652615018715536 0.3819724584703354 0.23907961272129513
 0.47295837785348205 0.11309094457553978 0.4729583778535846 0.1130909445755924 0.3819724584703353 0.23907961272129508 -0.32788921417723216 -0.4652615018714976
199500000.0 -0.33880206572391075 -0.4537956843482495 0.39262912968297864 0.22811956433435676 0.4730864680203242 0.11283806000730912 0.4730864680204052 0.11283806000736119
 0.3926291296829786 0.22811956433435682 -0.3388020657236747 -0.45379568434819223 0.4730864680204185 0.11283806000737023 0.4730864680205076 0.1128380600074137
 0.47308646802032417 0.11283806000730924 0.47308646802041854 0.11283806000737014 -0.32863865125199243 -0.46438129347808743 0.3824657152110517 0.23870517346418912
 0.473086468020405 0.11283806000736119 0.47308646802050736 0.11283806000741371 0.3824657152110515 0.23870517346418904 -0.3286386512517941 -0.46438129347803164
200000000.0 -0.3395101885270697 -0.45291967992838283 0.3930828538590379 0.22774722410594614 0.47321366733387443 0.11258622791158247 0.47321366733395526 0.11258622791163424
 0.39308285385903774 0.2277472241059459 -0.3395101885268338 -0.4529196799283261 0.47321366733396875 0.11258622791164308 0.4732136673340576 0.11258622791168632
 0.47321366733387416 0.11258622791158246 0.4732136673339688 0.1125862279116432 -0.32938343688643007 -0.46350373282801566 0.38295610221838944 0.23833127700557297
 0.4732136673339551 0.11258622791163414 0.4732136673340575 0.11258622791168645 0.3829561022183894 0.23833127700557286 -0.32938343688623206 -0.4635037328279601
