! Created with skrf 2.0.1 (http://scikit-rf.org).
# Hz S RI R 50.0 
!freq ReS11 ImS11 ReS21 ImS21 ReS12 ImS12 ReS22 ImS22
500000.0 0.9999806363920589 -0.005302923205373248 2.6716998688429326e-19 4.31405709812018e-17 2.7424213359593634e-19 4.428252727188068e-17 0.9999819992124414 -0.005082865368365411
1000000.0 0.9999331531789983 -0.010605566487951617 9.823494302631923e-19 8.627501022884596e-17 1.008352797534865e-18 8.855876049960954e-17 0.9999381640929915 -0.01016548209159391
1500000.0 0.9998575545900367 -0.01590770620846349 2.145413851014517e-18 1.2939808358844954e-16 2.2022042176590194e-18 1.328233269775556e-16 0.9998684982359093 -0.0152476532295671
2000000.0 0.9997538472254694 -0.021209118800010977 3.7561662996505256e-18 1.725045595496594e-16 3.8555942311118625e-18 1.7707085671420922e-16 0.9997730072368588 -0.020329181901052706
2500000.0 0.9996220400552587 -0.02650958079948434 5.8143374172267975e-18 2.1558921042190208e-16 5.96824634885927e-18 2.2129598363895242e-16 0.9996516986918174 -0.025409871309122145
3000000.0 0.9994621444171281 -0.031808868878945566 8.319585518215265e-18 2.5864681350850044e-16 8.539809840756259e-18 2.654933468072549e-16 0.9995045821955885 -0.030489524766544932
3500000.0 0.9992741740141583 -0.03710675987697192 1.127149669529941e-17 3.016721522787936e-16 1.1569859843116158e-17 3.096575916038204e-16 0.9993316693399317 -0.035567945721153314
4000000.0 0.9990581449118837 -0.04240303082995017 1.4669584946038473e-17 3.446600175377948e-16 1.5057897488727727e-17 3.5378337094320705e-16 0.9991329737113085 -0.04064493778117017
4500000.0 0.9988140755348918 -0.047697459003312154 1.851329232133662e-17 3.876052085929247e-16 1.9003350059254352e-17 3.978653464674433e-16 0.9989085108882371 -0.045720304740493094
5000000.0 0.9985419866629316 -0.0529898219227029 2.2801989095642113e-17 4.3050253441736073e-16 2.340557115993852e-17 4.4189818974017325e-16 0.9986582984382686 -0.05079385060392835
5500000.0 0.9982419014265248 -0.05827989740507166 2.7534973958790536e-17 4.733468148095429e-16 2.826384091652322e-17 4.858765834368543e-16 0.9983823559145772 -0.0558653796123673
6000000.0 0.9979138453020863 -0.0635674635896772 3.2711474229395455e-17 5.161328815483807e-16 3.357736619429122e-17 5.297952225305436e-16 0.9980807048521692 -0.06093469626789902
6500000.0 0.9975578461065533 -0.06885229896899786 3.833064608967895e-17 5.58855579543706e-16 3.9345280839111616e-17 5.73648815472804e-16 0.9977533687637122 -0.06600160535885212
7000000.0 0.9971739339915315 -0.0741341824195379 4.4391574841624123e-17 6.015097679815256e-16 4.556664594037299e-17 6.174320853692718e-16 0.9974003731349835 -0.07106591198475898
7500000.0 0.9967621414369504 -0.0794128932325206 5.0893275184320785e-17 6.440903214636212e-16 5.2240450115670445e-17 6.611397711494229e-16 0.9970217454199433 -0.07612742158123603
8000000.0 0.996322503244237 -0.08468821114445957 5.7834691512365e-17 6.865921311410549e-16 5.936560981710408e-17 7.047666287300831e-16 0.9966175150354295 -0.08118593994477288
8500000.0 0.9958550565290109 -0.08995991636759944 6.521469823516352e-17 7.290101058411439e-16 6.694096965903549e-17 7.483074321722329e-16 0.9961877133554817 -0.08624127325742452
9000000.0 0.9953598407133006 -0.09522778962021684 7.303210011698271e-17 7.713391731874613e-16 7.496530276713814e-17 7.917569748306588e-16 0.9957323737052929 -0.0912932281113993
9500000.0 0.9948368975172862 -0.10049161215677345 8.128563263757265e-17 8.135742807124406e-16 8.343731114856723e-17 8.351100704960052e-16 0.9952515313547898 -0.09634161153353646
10000000.0 0.994286270950568 -0.1057511657979119 8.997396237318585e-17 8.557103969621461e-16 9.235562608306432e-17 8.783615545287913e-16 0.9947452235118475 -0.10138623100966673
10500000.0 0.9937080073029732 -0.1110062329602866 9.909568739780166e-17 8.97742512592799e-16 1.0171880853480228e-16 9.215062849849613e-16 0.9942134893151391 -0.10642689450884985
11000000.0 0.9931021551348912 -0.11625659668622051 1.0864933770435614e-16 9.396656414586316e-16 1.1152534958476554e-16 9.645391437325362e-16 0.9936563698266243 -0.11146341050748228
11500000.0 0.9924687652671527 -0.12150204067317949 1.1863337564576832e-16 9.814748216906633e-16 1.217736708834504e-16 1.0074550375589454e-15 0.9930739080236759 -0.11649558801326884
12000000.0 0.9918078907704537 -0.1267423493030569 1.290461963955453e-16 1.0231651167659942e-15 1.3246212512366267e-16 1.0502488992686236e-15 0.9924661487908506 -0.12152323658905248
12500000.0 0.9911195869543209 -0.13197730767125807 1.3988612842773674e-16 1.0647316165672094e-15 1.4358899653317677e-16 1.0929156887704587e-15 0.9918331389113084 -0.1265461663764955
13000000.0 0.9904039113556359 -0.13720670161557957 1.5115143401600389e-16 1.1061694384315052e-15 1.5515250138701573e-16 1.1354503941546918e-15 0.9911749270578777 -0.13156418811960655
13500000.0 0.98966092372671 -0.14243031774487236 1.6284030975155525e-16 1.147473728189146e-15 1.6715078853909645e-16 1.177848032758859e-15 0.9904915637837742 -0.13657711318810714
14000000.0 0.9888906860229234 -0.1476479434674827 1.7495088707969637e-16 1.1886396611908762e-15 1.7958193997298242e-16 1.220103652222399e-15 0.9897831015129764 -0.14158475360063152
14500000.0 0.9880932623899276 -0.1528593670194626 1.874812328547289e-16 1.2296624433238996e-15 1.9244397137147171e-16 1.2622123315295325e-15 0.9890495945302593 -0.14658692204775509
15000000.0 0.9872687191504196 -0.158064377492542 2.0042934991292862e-16 1.2705373120160745e-15 2.0573483270474146e-16 1.3041691820400296e-15 0.9882910989708894 -0.15158343191484347
15500000.0 0.986417124790491 -0.16326276486185543 2.1379317766332358e-16 1.3112595372279534e-15 2.1945240883676452e-16 1.3459693485075168e-15 0.9875076728099905 -0.15657409730471955
16000000.0 0.9855385499455568 -0.16845432001341443 2.2757059269598077e-16 1.3518244224323098e-15 2.335945201496979e-16 1.38760801008493e-15 0.9866993758515724 -0.16155873306013915
16500000.0 0.9846330673858738 -0.17363883477132175 2.4175940940751366e-16 1.3922273055808269e-15 2.481589231859479e-16 1.4290803813167902e-15 0.9858662697172409 -0.16653715478607395
17000000.0 0.9837007520016441 -0.17881610192471514 2.5635738064349816e-16 1.432463560057577e-15 2.631433113075907e-16 1.4703817131179245e-15 0.9850084178345787 -0.17150917887179182
17500000.0 0.9827416807877223 -0.1839859152544384 2.713621983574957e-16 1.4725285956189964e-15 2.7854531537284117e-16 1.5115072937383228e-15 0.9841258854252146 -0.17647462251273352
18000000.0 0.9817559328279214 -0.18914806955943003 2.867714942863601e-16 1.5124178593200047e-15 2.943625044292343e-16 1.5524524497137693e-15 0.9832187394925724 -0.18143330373217634
18500000.0 0.9807435892789288 -0.19430236068282367 3.0258284064150816e-16 1.5521268364259748e-15 3.1059238642319505e-16 1.5932125468019562e-15 0.9822870488093156 -0.1863850414026836
19000000.0 0.979704733353838 -0.19944858553775285 3.1879375081581856e-16 1.5916510513102299e-15 3.2723240892564906e-16 1.633782990903736e-15 0.9813308839044809 -0.19132965526733045
19500000.0 0.978639450305298 -0.20458654213285524 3.3540168010582937e-16 1.630986068336791e-15 3.4427995987333665e-16 1.6741592289692354e-15 0.9803503170503172 -0.1962669659607061
20000000.0 0.9775478274082957 -0.20971602959746827 3.5240402644888256e-16 1.6701274927280654e-15 3.6173236832547064e-16 1.7143367498885142e-15 0.9793454222488224 -0.20119679502968257
20500000.0 0.9764299539425654 -0.21483684820651014 3.697981311748713e-16 1.7090709714172083e-15 3.7958690523538257e-16 1.7543110853664871e-15 0.9783162752179917 -0.20611896495394874
21000000.0 0.9752859211746423 -0.21994879940504178 3.8758127977223505e-16 1.7478121938848847e-15 3.978407842367942e-16 1.7940778107818374e-15 0.9772629533777757 -0.21103329916630295
21500000.0 0.9741158223395636 -0.22505168583250185 4.057507026678413e-16 1.7863468929801726e-15 4.164911624443429e-16 1.8336325460296474e-15 0.9761855358357617 -0.21593962207270176
22000000.0 0.9729197526222186 -0.2301453113466095 4.2430357602038557e-16 1.824670845725339e-15 4.3553514126798397e-16 1.87297095634748e-15 0.9750841033725698 -0.22083775907205694
22500000.0 0.9716978091383645 -0.23522948104693073 4.4323702252694667e-16 1.8627798741042728e-15 4.549697672408952e-16 1.91208875312468e-15 0.973958738426982 -0.22572753657578
23000000.0 0.970450090915306 -0.2403040012981011 4.625481122423147e-16 1.9006698458343145e-15 4.747920328604935e-16 1.9509816946946344e-15 0.9728095250808034 -0.23060878202706803
23500000.0 0.9691766988722498 -0.24536867975269966 4.822338634107158e-16 1.9383366751212693e-15 4.949988774421759e-16 1.989645587109773e-15 0.9716365490434572 -0.2354813239199265
24000000.0 0.9678777358003413 -0.25042332537377054 5.022912433095509e-16 1.9757763233973926e-15 5.155871879853919e-16 2.0280762848990876e-15 0.9704398976363272 -0.2403449918179262
24500000.0 0.9665533063423893 -0.2554677484569852 5.227171691047582e-16 2.01298480004213e-15 5.365538000516488e-16 2.0662696918079513e-15 0.9692196597768438 -0.2451996163726892
25000000.0 0.9652035169722873 -0.2605017606524429 5.43508508717413e-16 2.0499581630854332e-15 5.578954986540503e-16 2.1042217615200476e-15 0.9679759259623266 -0.25004502934210143
25500000.0 0.9638284759741372 -0.2655251749861012 5.646620817011628e-16 2.0866925198934426e-15 5.796090191579581e-16 2.1419284983612097e-15 0.9667087882535842 -0.2548810636082458
26000000.0 0.9624282934210845 -0.2705378058808363 5.861746601301091e-16 2.1231840278363833e-15 6.016910481923766e-16 2.1793859579849937e-15 0.9654183402582774 -0.25970755319505584
26500000.0 0.9610030811538709 -0.27553946917712574 6.080429694967297e-16 2.159428894938497e-15 6.2413822457164315e-16 2.21659024803981e-15 0.9641046771140535 -0.2645243332856823
27000000.0 0.9595529527591138 -0.28052998215335 6.302636896194397e-16 2.1954233805098474e-15 6.469471402270132e-16 2.2535375288174616e-15 0.9627678954714546 -0.26933124023957355
27500000.0 0.958078023547319 -0.2855091635457107 6.528334555593866e-16 2.2311637957598674e-15 6.701143411477235e-16 2.290224013882923e-15 0.9614080934766055 -0.2741281116092619
28000000.0 0.9565784105306333 -0.2904768335677591 6.75748858546073e-16 2.2666465043924936e-15 6.936363283311162e-16 2.3266459706852365e-15 0.9600253707536903 -0.27891478615685816
28500000.0 0.9550542324003484 -0.2954328139295328 6.990064469113961e-16 2.301867923182782e-15 7.175095587414036e-16 2.3627997211493846e-15 0.9586198283872184 -0.28369110387024665
29000000.0 0.9535056095041597 -0.3003769278562979 7.226027270316955e-16 2.3368245225348656e-15 7.417304462766523e-16 2.3986816422490246e-15 0.9571915689040913 -0.28845690597898044
29500000.0 0.9519326638231915 -0.3053090001068903 7.465341642773946e-16 2.371512827021165e-15 7.662953627435609e-16 2.4342881665599605e-15 0.9557406962554679 -0.29321203496987297
30000000.0 0.9503355189487906 -0.31022885699165675 7.707971839698245e-16 2.4059294159027394e-15 7.912006388396139e-16 2.4696157827942826e-15 0.9542673157984437 -0.29795633460228477
30500000.0 0.9487143000591068 -0.31513632638999073 7.953881723448209e-16 2.440070923630713e-15 8.164425651421841e-16 2.5046610363150558e-15 0.9527715342775435 -0.30268964992310154
31000000.0 0.9470691338954577 -0.32003123776746056 8.203034775226723e-16 2.4739340403286702e-15 8.420173931041547e-16 2.5394205296314876e-15 0.9512534598060328 -0.3074118272814007
31500000.0 0.9454001487384887 -0.3249134221925262 8.455394104840059e-16 2.507515512255975e-15 8.679213360556414e-16 2.5738909228745156e-15 0.9497132018470594 -0.31212271434280636
32000000.0 0.9437074743841412 -0.3297827123528456 8.710922460512104e-16 2.5408121422519505e-15 8.941505702113895e-16 2.6080689342527377e-15 0.9481508711946252 -0.31682216010352904
32500000.0 0.9419912421194319 -0.3346389425711649 8.969582238749617e-16 2.5738207901608708e-15 9.207012356834168e-16 2.641951340488659e-15 0.9465665799543976 -0.32151001490408776
33000000.0 0.940251584698051 -0.3394819488207913 9.231335494254523e-16 2.606538373237718e-15 9.47569437498479e-16 2.6755349772351867e-15 0.9449604415243653 -0.32618613044271366
33500000.0 0.9384886363157908 -0.3443115687406477 9.496143949879058e-16 2.6389618665346925e-15 9.747512466199386e-16 2.7088167394723762e-15 0.9433325705753446 -0.33085035978843347
34000000.0 0.9367025325858116 -0.3491276416499079 9.763969006619697e-16 2.6710883032684484e-15 1.0022427009736102e-15 2.741793581884378e-15 0.9416830830313412 -0.3355025573938297
34500000.0 0.9348934105137501 -0.35393000856220763 1.0034771753645723e-15 2.702914775168046e-15 1.0300398064771638e-15 2.7744625192166115e-15 0.9400120960497781 -0.34014257910747947
35000000.0 0.9330614084726825 -0.35871851219943296 1.0308512978358289e-15 2.7344384328036107e-15 1.05813853807266e-15 2.8068206266131184e-15 0.9383197280015855 -0.34477028218606426
35500000.0 0.9312066661779491 -0.36349299700508597 1.0585153176476108e-15 2.765656485895745e-15 1.0865348407618123e-15 2.838865039934162e-15 0.9366060984511729 -0.3493855253061577
36000000.0 0.9293293246618456 -0.3682533091572213 1.0864652562143438e-15 2.7965662036056543e-15 1.115224630643547e-15 2.8705929560540395e-15 0.9348713281362753 -0.3539881685756829
36500000.0 0.9274295262481932 -0.37299929658095876 1.114697107805658e-15 2.8271649148060707e-15 1.1442037959534546e-15 2.902001633139172e-15 0.9331155389476888 -0.35857807354504284
37000000.0 0.9255074145267955 -0.3777308089605684 1.1432068405604737e-15 2.8574500083329794e-15 1.1734681981047215e-15 2.9330883909064994e-15 0.9313388539089009 -0.3631551032179211
37500000.0 0.9235631343277844 -0.3824476977511265 1.1719903975021314e-15 2.8874189332182027e-15 1.2030136727301288e-15 2.963850610862214e-15 0.9295413971556141 -0.3677191220617516
38000000.0 0.9215968316958707 -0.3871498161897453 1.2010436975541681e-15 2.9170691989028973e-15 1.2328360307247199e-15 2.9942857365209155e-15 0.9277232939151778 -0.37226999601785954
38500000.0 0.9196086538645033 -0.391837019306373 1.2303626365563516e-15 2.9463983754320286e-15 1.2629310592887255e-15 3.0243912736052292e-15 0.92588467048593 -0.3768075925112686
39000000.0 0.9175987492299453 -0.3965091639341663 1.2599430882805802e-15 2.9754040936298968e-15 1.2932945229703604e-15 3.054164790225983e-15 0.9240256542164559 -0.3813317804601791
39500000.0 0.9155672673252732 -0.40116610871943403 1.2897809054462648e-15 3.0040840452567878e-15 1.3239221647080775e-15 3.0836039170429966e-15 0.9221463734847672 -0.3858424302851123
40000000.0 0.9135143587943132 -0.4058077141311536 1.3198719207348109e-15 3.0324359831468513e-15 1.3548097068719088e-15 3.1127063474066213e-15 0.9202469576774122 -0.39033941391772325
40500000.0 0.9114401753655155 -0.4104338424700598 1.3502119478028235e-15 3.060457721327287e-15 1.3859528523034863e-15 3.141469837480068e-15 0.9183275371685177 -0.39482260480928144
41000000.0 0.9093448698257774 -0.4150443578773066 1.3807967822936638e-15 3.0881471351189685e-15 1.4173472853543782e-15 3.169892206342705e-15 0.9163882432987739 -0.39929187793882
41500000.0 0.9072285959942228 -0.41963912634270206 1.411622202846976e-15 3.115502161218584e-15 1.4489886729223373e-15 3.1979713360743717e-15 0.9144292083543627 -0.40374710982095147
42000000.0 0.9050915086959477 -0.42421801571252044 1.4426839721058428e-15 3.142520797762463e-15 1.4808726654851152e-15 3.2257051718208813e-15 0.9124505655458401 -0.40818817851335387
42500000.0 0.9029337637357353 -0.42878089569688804 1.4739778377211823e-15 3.1692011043721603e-15 1.5129948981314487e-15 3.2530917218408348e-15 0.9104524489869747 -0.41261496362392386
43000000.0 0.9007555178717511 -0.43332763787674616 1.505499533353049e-15 3.195541202181992e-15 1.5453509915888648e-15 3.2801290575338686e-15 0.9084349936735512 -0.4170273463176007
43500000.0 0.898556928789224 -0.43785811571039396 1.5372447796684795e-15 3.2215392738486236e-15 1.5779365532479393e-15 3.306815313450499e-15 0.9063983354621411 -0.4214252093228583
44000000.0 0.8963381550741246 -0.4423722045396106 1.5692092853355448e-15 3.2471935635428867e-15 1.610747178182662e-15 3.3331486872837274e-15 0.9043426110488506 -0.42580843693787
44500000.0 0.8940993561868423 -0.4468697815953585 1.6013887480132576e-15 3.272502376923971e-15 1.64377845016655e-15 3.359127439842547e-15 0.9022679579480485 -0.4301769150363439
45000000.0 0.8918406924358716 -0.45135072600307063 1.6337788553370084e-15 3.2974640810961634e-15 1.6770259426841646e-15 3.3847498950075325e-15 0.90017451447108 -0.4345305310730303
45500000.0 0.8895623249515171 -0.4558149187875232 1.6663752858991937e-15 3.322077104548291e-15 1.710485219937702e-15 3.410014439668687e-15 0.8980624197049705 -0.4388691740889027
46000000.0 0.8872644156596201 -0.4602622428772952 1.6991737102247264e-15 3.346339937076084e-15 1.744151837848322e-15 3.434919523645744e-15 0.8959318134911316 -0.44319273471601495
46500000.0 0.8849471272553158 -0.4646925831088181 1.7321697917410848e-15 3.370251129687583e-15 1.7780213450518785e-15 3.4594636595910787e-15 0.893782836404065 -0.4475011051820323
47000000.0 0.88261062317683 -0.4691058262300178 1.7653591877426155e-15 3.3938092944918513e-15 1.8120892838887434e-15 3.483645422875459e-15 0.8916156297300774 -0.45179417931444016
47500000.0 0.8802550675793177 -0.47350186090354923 1.7987375503487615e-15 3.4170131045711166e-15 1.8463511913874055e-15 3.5074634514568227e-15 0.8894303354460087 -0.4560718525444338
48000000.0 0.877880625308755 -0.4778805777096303 1.8323005274559308e-15 3.439861293836616e-15 1.8808026002415287e-15 3.530916445732291e-15 0.8872270961979783 -0.46033402191048445
48500000.0 0.8754874618758905 -0.4822418691484744 1.866043763682701e-15 3.4623526568682915e-15 1.9154390397801843e-15 3.55400316837363e-15 0.8850060552801575 -0.46458058606159136
49000000.0 0.8730757434302578 -0.48658562964232477 1.899962901308077e-15 3.484486048738596e-15 1.9502560369309376e-15 3.576722444146381e-15 0.8827673566135692 -0.4688114452602143
49500000.0 0.8706456367342641 -0.49091175553709576 1.934053581202519e-15 3.5062603848205845e-15 1.985249117175527e-15 3.599073159712895e-15 0.8805111447249246 -0.4730265013848942
50000000.0 0.8681973091373532 -0.4952201451036213 1.968311443751465e-15 3.5276746405805637e-15 2.020413805497827e-15 3.621054263419461e-15 0.878237564725497 -0.4772256579325585
50500000.0 0.8657309285502551 -0.49951069853851604 2.00273212977108e-15 3.5487278513554835e-15 2.0557456273238433e-15 3.642664765067834e-15 0.875946762290044 -0.4814088200205185
51000000.0 0.8632466634193258 -0.5037833179646505 2.037311281415969e-15 3.569419112115327e-15 2.09124010945345e-15 3.66390373567132e-15 0.8736388836357764 -0.4855758943881566
51500000.0 0.8607446827009843 -0.5080379074312459 2.072044543078604e-15 3.5897475772107354e-15 2.126892780983626e-15 3.684770307195726e-15 0.8713140755013824 -0.48972678939830805
52000000.0 0.858225155836253 -0.5122743729135902 2.1069275622802105e-15 3.6097124601061124e-15 2.1626991742229223e-15 3.705263672285392e-15 0.8689724851261138 -0.4938614150383382
52500000.0 0.8556882527254056 -0.5164926223123784 2.141955990552865e-15 3.629313033098421e-15 2.198654825596911e-15 3.7253830839745566e-15 0.8666142602289328 -0.4979796829209178
53000000.0 0.8531341437027335 -0.5206925654526845 2.177125484312596e-15 3.64854862702199e-15 2.2347552765444e-15 3.745127855384336e-15 0.8642395489877317 -0.5020815062845008
53500000.0 0.8505629995114287 -0.5248741140825638 2.212431705723222e-15 3.667418630939498e-15 2.2709960744041303e-15 3.764497359405542e-15 0.8618485000186232 -0.5061667999935022
54000000.0 0.8479749912785971 -0.5290371818712944 2.2478703235507413e-15 3.685922491819473e-15 2.3073727732917905e-15 3.7834910283676355e-15 0.8594412623553108 -0.5102354805381855
54500000.0 0.8453702904904015 -0.5331816844072571 2.2834370140080354e-15 3.704059714200513e-15 2.3438809349670717e-15 3.802108353694055e-15 0.8570179854285419 -0.5142874660342545
55000000.0 0.8427490689673443 -0.5373075391954626 2.3191274615896967e-15 3.721829859842504e-15 2.3805161296906003e-15 3.820348885544218e-15 0.8545788190456474 -0.5183226762221607
55500000.0 0.8401114988396912 -0.5414146656547257 2.35493735989676e-15 3.739232547365121e-15 2.417273937070498e-15 3.8382122324424326e-15 0.8521239133701717 -0.5223410324661192
56000000.0 0.8374577525230437 -0.5455029851144938 2.3908624124511765e-15 3.756267451873856e-15 2.4541499468984137e-15 3.8556980608940455e-15 0.8496534189016043 -0.5263424577528487
56500000.0 0.8347880026940667 -0.5495724208113324 2.4268983334998062e-15 3.772934304573849e-15 2.4911397599748004e-15 3.872806094989038e-15 0.847167486455202 -0.5303268766900229
57000000.0 0.8321024222663724 -0.5536228978850728 2.4630408488077856e-15 3.789232892371819e-15 2.5282389889232854e-15 3.889536115993425e-15 0.8446662671419252 -0.5342942155044514
57500000.0 0.8294011843665678 -0.5576543433746262 2.499285696441074e-15 3.8051630574663254e-15 2.565443258993926e-15 3.90588796192867e-15 0.8421499123484739 -0.5382444020399823
58000000.0 0.8266844623104723 -0.5616666862134678 2.5356286275380345e-15 3.8207246969266904e-15 2.602748208855218e-15 3.921861527139455e-15 0.8396185737174426 -0.5421773657551348
58500000.0 0.8239524295795063 -0.5656598572247983 2.5720654070698713e-15 3.835917762260813e-15 2.6401494913746625e-15 3.93745676185007e-15 0.8370724031275874 -0.5460930377204648
59000000.0 0.821205259797257 -0.569633789116382 2.6085918145897952e-15 3.850742258972195e-15 2.677642774387761e-15 3.952673671709694e-15 0.8345115526742133 -0.5499913506156645
59500000.0 0.818443126706228 -0.5735884164750741 2.645203644970757e-15 3.865198246106429e-15 2.7152237414552777e-15 3.967512317326894e-15 0.8319361746496862 -0.5538722387264
60000000.0 0.815666204144773 -0.577523675761034 2.6818967091316253e-15 3.879285835787462e-15 2.7528880926086384e-15 3.9819728137935995e-15 0.8293464215240723 -0.5577356379408919
60500000.0 0.8128746660242206 -0.5814395053016335 2.7186668347516684e-15 3.893005192743887e-15 2.7906315450833304e-15 3.9960553301988716e-15 0.8267424459259075 -0.5615814857462411
61000000.0 0.8100686863061961 -0.5853358452850669 2.7555098669732323e-15 3.9063565338255814e-15 2.8284498340401713e-15 4.009760089132729e-15 0.8241244006230997 -0.5654097212245006
61500000.0 0.8072484389801354 -0.5892126377536614 2.7924216690924903e-15 3.91934012751095e-15 2.86633871327435e-15 4.023087366180357e-15 0.8214924385039728 -0.5692202850485035
62000000.0 0.8044140980410096 -0.5930698265968983 2.82939812323815e-15 3.931956293405072e-15 2.904293955912101e-15 4.036037489406971e-15 0.8188467125584467 -0.573013119477442
62500000.0 0.801565837467249 -0.5969073575441497 2.8664351310380465e-15 3.944205401729051e-15 2.9423113550949363e-15 4.048610838833644e-15 0.8161873758593665 -0.5767881683522096
63000000.0 0.7987038311988793 -0.6007251781571319 2.903528614273484e-15 3.956087872800816e-15 2.9803867246513113e-15 4.060807845904366e-15 0.8135145815439734 -0.5805453770905016
63500000.0 0.7958282531158719 -0.6045232378220833 2.940674515521275e-15 3.9676041765077105e-15 3.0185158997556613e-15 4.072628992944679e-15 0.8108284827955318 -0.5842846926816865
64000000.0 0.7929392770167095 -0.6083014877416744 2.9778687987833827e-15 3.978754831771121e-15 3.0566947375747078e-15 4.084074812612122e-15 0.8081292328251051 -0.5880060636814421
64500000.0 0.7900370765971715 -0.6120598809266474 3.015107450104088e-15 3.989540406003444e-15 3.0949191179009602e-15 4.0951458873388285e-15 0.8054169848534909 -0.59170944020617
65000000.0 0.7871218254293426 -0.6157983721872 3.0523864781746186e-15 3.9999615145576724e-15 3.1331849437733596e-15 4.105842848766553e-15 0.8026918920933134 -0.5953947739271838
65500000.0 0.7841936969408484 -0.6195169181241115 3.0897019149251964e-15 4.010018820169905e-15 3.1714881420849804e-15 4.116166377174402e-15 0.7999541077312776 -0.5990620180646794
66000000.0 0.7812528643943183 -0.6232154771196186 3.1270498161044023e-15 4.019713032395024e-15 3.209824664177754e-15 4.126117200899598e-15 0.7972037849105893 -0.6027111273814914
66500000.0 0.7782995008670817 -0.6268940093280487 3.1644262618458772e-15 4.029044907035879e-15 3.2481904864241503e-15 4.135696095751535e-15 0.7944410767135404 -0.6063420581766348
67000000.0 0.7753337792310965 -0.6305524766662116 3.2018273572222585e-15 4.0380152455662106e-15 3.2865816107957886e-15 4.144903884419433e-15 0.7916661361442644 -0.6099547682786435
67500000.0 0.7723558721331167 -0.6341908428035566 3.239249232786343e-15 4.0466248945476184e-15 3.324994065418922e-15 4.153741435873877e-15 0.7888791161116647 -0.6135492170386995
68000000.0 0.7693659519750989 -0.6378090731521039 3.2766880450994595e-15 4.0548747450408585e-15 3.3634239051167986e-15 4.162209664762529e-15 0.7860801694125137 -0.6171253653235677
68500000.0 0.7663641908948489 -0.6414071348561471 3.3141399772469956e-15 4.062765732011735e-15 3.4018672119388275e-15 4.170309530800282e-15 0.7832694487147316 -0.6206831755083292
69000000.0 0.7633507607469133 -0.644984996781743 3.3516012393411012e-15 4.0702988337318754e-15 3.4403200956766003e-15 4.178042038154189e-15 0.7804471065408431 -0.624222611468928
69500000.0 0.7603258330837193 -0.6485426295059842 3.3890680690105144e-15 4.077475071174641e-15 3.478778694366674e-15 4.185408234823381e-15 0.7776132952516113 -0.627743638574523
70000000.0 0.7572895791369575 -0.6520800053060649 3.42653673187755e-15 4.084295507406489e-15 3.517239174780192e-15 4.192409212014309e-15 0.7747681670298588 -0.6312462236796618
70500000.0 0.7542421697992192 -0.6555970981481459 3.4640035220222225e-15 4.090761246974019e-15 3.55569773289928e-15 4.199046103511566e-15 0.7719118738644689 -0.6347303351162692
71000000.0 0.7511837756058827 -0.6590938836760201 3.5014647624335068e-15 4.09687343528698e-15 3.594150594380276e-15 4.2053200850445764e-15 0.7690445675345763 -0.6381959426854624
71500000.0 0.748114566717254 -0.6625703391995874 3.5389168054477745e-15 4.102633257997527e-15 3.632594015003744e-15 4.211232373650402e-15 0.7661663995939413 -0.6416430176491897
72000000.0 0.7450347129009621 -0.6660264436831431 3.576356033174404e-15 4.1080419403759664e-15 3.671024281111373e-15 4.216784227032977e-15 0.7632775213555191 -0.6450715327217064
72500000.0 0.7419443835146095 -0.6694621777334846 3.6137788579085936e-15 4.11310074668327e-15 3.709437710029705e-15 4.221976942919004e-15 0.7603780838762142 -0.6484814620608793
73000000.0 0.7388437474886816 -0.6728775235878408 3.651181722531387e-15 4.117810979540605e-15 3.747830650480747e-15 4.226811858410797e-15 0.7574682379418313 -0.6518727812593335
73500000.0 0.7357329733097153 -0.6762724651016349 3.688561100896998e-15 4.12217397929615e-15 3.7861994829795655e-15 4.231290349336342e-15 0.7545481340522179 -0.6552454673354446
74000000.0 0.732612229003725 -0.6796469877360759 3.725913498207408e-15 4.126191123389439e-15 3.824540620218779e-15 4.235413829596805e-15 0.7516179224066033 -0.6585994987241738
74500000.0 0.7294816821198906 -0.683001078545593 3.7632354513743046e-15 4.129863825713493e-15 3.862850507440096e-15 4.239183750511792e-15 0.7486777528891326 -0.661934855267755
75000000.0 0.7263414997145098 -0.6863347261651169 3.800523529368449e-15 4.133193535974987e-15 3.901125622792907e-15 4.24260160016256e-15 0.7457277750545986 -0.6652515182062385
75500000.0 0.7231918483352089 -0.6896479207972059 3.8377743335564524e-15 4.136181739052703e-15 3.939362477680006e-15 4.245668902733511e-15 0.7427681381143737 -0.6685494701678931
76000000.0 0.7200328940054196 -0.6929406541990323 3.874984498025084e-15 4.1388299543545014e-15 3.977557617090453e-15 4.24838721785212e-15 0.7397989909225386 -0.6718286951594687
76500000.0 0.7168648022091171 -0.6962129196692237 3.9121506898931166e-15 4.14113973517304e-15 4.015707619919699e-15 4.250758139927621e-15 0.736820481962214 -0.6750891785563284
77000000.0 0.7136877378758281 -0.6994647120345774 3.949269609610845e-15 4.143112668040536e-15 4.053809099277015e-15 4.2527832974886675e-15 0.733832759332091 -0.6783309070924486
77500000.0 0.7105018653658955 -0.7026960276366373 3.98633799124728e-15 4.144750372082713e-15 4.091858702780297e-15 4.254464352520196e-15 0.7308359707331679 -0.6815538688502968
78000000.0 0.7073073484560152 -0.7059068643181513 4.0233526027651276e-15 4.14605449837224e-15 4.1298531128383224e-15 4.255802999799742e-15 0.7278302634556831 -0.684758053250584
78500000.0 0.704104350325034 -0.7090972214094078 4.060310246283632e-15 4.147026729281857e-15 4.167789046920551e-15 4.256800966233437e-15 0.7248157843662588 -0.6879434510419016
79000000.0 0.7008930335400154 -0.712267099714458 4.09720775832936e-15 4.147668777837398e-15 4.2056632578145484e-15 4.257460010191917e-15 0.7217926798952427 -0.6911100542902433
79500000.0 0.6976735600425695 -0.7154165014972276 4.134042010075014e-15 4.147982387070965e-15 4.243472533871117e-15 4.257781920846373e-15 0.718761096024257 -0.6942578563684185
80000000.0 0.6944460911354478 -0.7185454304675258 4.170809907566366e-15 4.1479693293744415e-15 4.28121369923724e-15 4.257768517504942e-15 0.7157211782739527 -0.6973868519453564
80500000.0 0.6912107874694058 -0.7216538917669535 4.207508391937393e-15 4.1476314058535606e-15 4.318883614076912e-15 4.257421648949683e-15 0.7126730716919658 -0.7004970369753091
81000000.0 0.6879678090303278 -0.7247418919547158 4.244134439613755e-15 4.146970445682751e-15 4.356479174780002e-15 4.256743192774354e-15 0.7096169208410835 -0.7035884086869578
81500000.0 0.6847173151266178 -0.7278094389933462 4.2806850625046545e-15 4.145988305460956e-15 4.393997314159189e-15 4.255735054723157e-15 0.7065528697876122 -0.7066609655724199
82000000.0 0.6814594643768551 -0.730856542234344 4.317157308183229e-15 4.144686868568618e-15 4.431435001635137e-15 4.254399168030727e-15 0.7034810620899532 -0.7097147073761677
82500000.0 0.6781944146977124 -0.7338832124037311 4.3535482600555605e-15 4.143068044526043e-15 4.468789243409973e-15 4.2527374927634975e-15 0.7004016407873838 -0.7127496350838579
83000000.0 0.6749223232921389 -0.7368894615875344 4.38985503751845e-15 4.1411337683533345e-15 4.506057082629233e-15 4.250752015162689e-15 0.6973147483890441 -0.71576575091108
83500000.0 0.6716433466378053 -0.739875303217194 4.426074796105991e-15 4.1388859999320684e-15 4.543235599532327e-15 4.248444746989094e-15 0.6942205268631296 -0.7187630582920176
84000000.0 0.6683576404758094 -0.7428407520549063 4.4622047276251585e-15 4.136326723368917e-15 4.580321911591707e-15 4.24581772486986e-15 0.6911191176262907 -0.7217415618680424
84500000.0 0.665065359799646 -0.7457858241789055 4.498242060280446e-15 4.133457946361401e-15 4.617313173640811e-15 4.242873009647438e-15 0.6880106615332353 -0.7247012674762253
85000000.0 0.6617666588444342 -0.7487105369686852 4.53418405878774e-15 4.130281699565923e-15 4.654206577990945e-15 4.239612685730903e-15 0.6848952988665385 -0.7276421821377865
85500000.0 0.658461691076405 -0.7516149090901671 4.5700280244775005e-15 4.126800035968297e-15 4.6909993545371974e-15 4.23603886044981e-15 0.6817731693266569 -0.7305643140464725
86000000.0 0.6551506091826491 -0.7544989604808225 4.605771295387417e-15 4.1230150302569066e-15 4.727688770853554e-15 4.232153663410766e-15 0.6786444120221476 -0.7334676725568753
86500000.0 0.6518335650611189 -0.7573627123347455 4.64141124634464e-15 4.118928778198677e-15 4.764272132277292e-15 4.227959245856878e-15 0.6755091654600917 -0.7363522681726901
87000000.0 0.648510709810888 -0.7602061870876892 4.676945289037738e-15 4.114543396018018e-15 4.800746781982854e-15 4.22345778003026e-15 0.6723675675367191 -0.7392181125349173
87500000.0 0.6451821937226684 -0.763029408402062 4.7123708720784895e-15 4.1098610197788995e-15 4.837110101045271e-15 4.2186514585377514e-15 0.6692197555282412 -0.7420652184100134
88000000.0 0.6418481662695761 -0.7658324011518959 4.747685481053685e-15 4.104883804770196e-15 4.873359508493341e-15 4.213542493719996e-15 0.6660658660818816 -0.7448935996779924
88500000.0 0.638508776098154 -0.7686151914077823 4.7828866385670276e-15 4.0996139248944935e-15 4.9094924613526255e-15 4.208133117024054e-15 0.6629060352071116 -0.7477032713204795
89000000.0 0.6351641710196431 -0.7713778064217861 4.817971904271306e-15 4.09405357206044e-15 4.945506454678487e-15 4.202425578379687e-15 0.6597403982670863 -0.750494249408727
89500000.0 0.6318144980015035 -0.7741202746123395 4.85293887489096e-15 4.088204955578835e-15 4.981399021579252e-15 4.1964221455794515e-15 0.6565690899702815 -0.7532665510915862
90000000.0 0.6284599031591859 -0.776842625549119 4.8877851842351975e-15 4.082070301562582e-15 5.017167733229658e-15 4.1901251036627666e-15 0.6533922443623293 -0.7560201945834457
90500000.0 0.6251005317481455 -0.7795448899379113 4.922508503201788e-15 4.0756518523306126e-15 5.052810198874776e-15 4.183536754304069e-15 0.6502099948180544 -0.7587551991521384
91000000.0 0.6217365281561048 -0.7822270996054675 4.957106539771689e-15 4.068951865815964e-15 5.088324065824471e-15 4.176659415205211e-15 0.6470224740337079 -0.7614715851068152
91500000.0 0.618368035895557 -0.7848892874843575 4.991577038994652e-15 4.061972614978067e-15 5.123707019438628e-15 4.169495419492192e-15 0.6438298140193979 -0.7641693737857965
92000000.0 0.614995197596513 -0.7875314875978168 5.025917782965915e-15 4.054716387219425e-15 5.158956783103248e-15 4.1620471151164094e-15 0.6406321460917158 -0.7668485875443949
92500000.0 0.6116181549994856 -0.7901537350446027 5.060126590794231e-15 4.0471854838067834e-15 5.194071118197608e-15 4.154316864260492e-15 0.637429600866561 -0.7695092497427247
93000000.0 0.6082370489487143 -0.7927560659838504 5.0942013185612396e-15 4.039382219296889e-15 5.2290478240525674e-15 4.146307042748868e-15 0.6342223082521563 -0.772151384733486
93500000.0 0.604852019385626 -0.7953385176199443 5.1281398592724625e-15 4.031308920966969e-15 5.263884737900263e-15 4.1380200394631535e-15 0.6310103974422565 -0.7747750178497407
94000000.0 0.6014632053425266 -0.7979011281873958 5.161940142799968e-15 4.022967928250008e-15 5.298579734815261e-15 4.129458255762508e-15 0.6277939969095521 -0.7773801753926737
94500000.0 0.59807074493653 -0.8004439369357433 5.19560013581694e-15 4.014361592174978e-15 5.333130727647389e-15 4.120624104909023e-15 0.6245732343992613 -0.7799668846193449
95000000.0 0.5946747753637142 -0.80296698411447 5.229117841724259e-15 4.005492274812071e-15 5.367535666946373e-15 4.1115200114982735e-15 0.6213482369229121 -0.7825351737304388
95500000.0 0.591275432893505 -0.805470310957941 5.2624913005692134e-15 3.996362348723018e-15 5.401792540878398e-15 4.102148410895096e-15 0.6181191307523131 -0.785085071858005
96000000.0 0.5878728528632904 -0.8079539596703736 5.295718588956596e-15 3.9869741964166556e-15 5.435899375134858e-15 4.092511748674743e-15 0.6148860414137104 -0.7876166090532059
96500000.0 0.5844671696732525 -0.8104179734108294 5.3287978199522145e-15 3.9773302098097664e-15 5.469854232833305e-15 4.082612480069437e-15 0.6116490936821335 -0.7901298162740579
97000000.0 0.5810585167814284 -0.8128623962782445 5.361727142979088e-15 3.967432789693281e-15 5.503655214410888e-15 4.072453069420458e-15 0.6084084115759206 -0.7926247253731864
97500000.0 0.577647026698986 -0.8152872732964914 5.394504743706356e-15 3.957284345203951e-15 5.537300457510347e-15 4.062035989635819e-15 0.6051641183514312 -0.7951013690855799
98000000.0 0.5742328309857203 -0.81769265039948 5.4271288439311815e-15 3.9468872933015425e-15 5.57078813685877e-15 4.0513637216536415e-15 0.6019163364979387 -0.7975597810163622
98500000.0 0.5708160602457629 -0.8200785744163012 5.459597701453698e-15 3.9362440582516384e-15 5.604116464139236e-15 4.040438753911239e-15 0.5986651877327027 -0.7999999956285689
99000000.0 0.5673968441235075 -0.8224450930564128 5.491909609945218e-15 3.925357071114111e-15 5.637283687855534e-15 4.029263581820072e-15 0.5954107929962222 -0.8024220482309469
99500000.0 0.5639753112997438 -0.8247922548948721 5.5240628988098246e-15 3.9142287692373316e-15 5.6702880931900845e-15 4.017840707246556e-15 0.5921532724476625 -0.8048259749657642
100000000.0 0.5605515894880022 -0.8271201093576189 5.556055933039488e-15 3.902861595758183e-15 5.7031280018552395e-15 4.006172637998841e-15 0.5888927454604623 -0.8072118127966449
100500000.0 0.5571258054311032 -0.8294287067068096 5.587887113062914e-15 3.8912579991079155e-15 5.735801771938109e-15 3.994261887319595e-15 0.5856293306181113 -0.8095795994964238
101000000.0 0.5536980848979117 -0.8317180980262079 5.619554874588211e-15 3.879420432523934e-15 5.768307797739075e-15 3.982110973384863e-15 0.5823631457101014 -0.8119293736350257
101500000.0 0.5502685526802935 -0.8339883352066276 5.6510576884395475e-15 3.8673513535675475e-15 5.800644509604122e-15 3.96972241880904e-15 0.5790943077280509 -0.8142611745673708
102000000.0 0.5468373325902683 -0.8362394709314418 5.6823940603879986e-15 3.855053223647714e-15 5.832810373751209e-15 3.957098750156035e-15 0.5758229328619953 -0.8165750424213121
102500000.0 0.5434045474573646 -0.8384715586621483 5.713562530976634e-15 3.842528507550865e-15 5.8648038920907215e-15 3.9442424974566224e-15 0.5725491364968469 -0.8188710180855979
103000000.0 0.539970319126163 -0.8406846526240038 5.744561675340115e-15 3.8297796729768216e-15 5.896623602040295e-15 3.931156193732092e-15 0.5692730332090226 -0.8211491431978745
103500000.0 0.5365347684540368 -0.8428788077917191 5.775390103018824e-15 3.816809190080851e-15 5.928268076334029e-15 3.917842374524168e-15 0.5659947367632322 -0.823409460132718
104000000.0 0.5330980153090786 -0.8450540798752295 5.806046457767805e-15 3.803619531021889e-15 5.959735922826365e-15 3.904303577431292e-15 0.5627143601094324 -0.8256520119897078
104500000.0 0.529660178568216 -0.8472105253055314 5.836529417360534e-15 3.790213169516986e-15 5.991025784290664e-15 3.890542341651257e-15 0.559432015379941 -0.8278768425815367
105000000.0 0.5262213761155105 -0.8493482012205933 5.866837693387771e-15 3.7765925804019755e-15 6.022136338212741e-15 3.8765612075302625e-15 0.5561478138867103 -0.8300839964221625
105500000.0 0.5227817248406391 -0.8514671654513423 5.8969700310515856e-15 3.7627602391984215e-15 6.053066296579422e-15 3.86236271611838e-15 0.5528618661187578 -0.8322735187150044
106000000.0 0.5193413406375565 -0.8535674765077277 5.926925208954695e-15 3.7487186216868364e-15 6.083814405662319e-15 3.847949408731488e-15 0.5495742817397531 -0.8344454553411818
106500000.0 0.5159003384033322 -0.8556491935648611 5.95670203888529e-15 3.734470203486214e-15 6.114379445796959e-15 3.8333238265196725e-15 0.5462851695857582 -0.836599852847802
107000000.0 0.5124588320371647 -0.8577123764492423 5.9862993655974765e-15 3.720017459639899e-15 6.14476023115741e-15 3.818488510042132e-15 0.5429946376631214 -0.8387367584362944
107500000.0 0.5090169344395644 -0.8597570856250609 6.015716066587466e-15 3.705362864207779e-15 6.174955609526547e-15 3.803445998848574e-15 0.5397027931465196 -0.8408562199507972
108000000.0 0.5055747575117102 -0.8617833821805884 6.0449510518656556e-15 3.690508889864845e-15 6.2049644620620995e-15 3.788198831067151e-15 0.5364097423771507 -0.8429582858665935
108500000.0 0.5021324121549704 -0.863791327814653 6.074003263724764e-15 3.675458007506112e-15 6.234785703058654e-15 3.772749542998919e-15 0.5331155908610719 -0.8450430052786029
109000000.0 0.4986900082705873 -0.865780984823203 6.102871676504128e-15 3.660212685857905e-15 6.2644182797057064e-15 3.75710066871885e-15 0.5298204432676833 -0.8471104278899272
109500000.0 0.4952476547595267 -0.8677524160859575 6.1315552963502954e-15 3.644775391095532e-15 6.29386117184192e-15 3.741254739683355e-15 0.5265244034283553 -0.8491606040004529
110000000.0 0.49180545952248295 -0.8697056850531523 6.160053160974094e-15 3.62914858646732e-15 6.32311339170576e-15 3.7252142843443955e-15 0.5232275743351945 -0.8511935844955115
110500000.0 0.4883635294600455 -0.8716408557323723 6.188364339404253e-15 3.613334731925047e-15 6.3521739836826016e-15 3.708981827770123e-15 0.5199300581399541 -0.8532094208346005
111000000.0 0.4849219704730149 -0.8735579926754821 6.2164879317377625e-15 3.597336283760739e-15 6.381042024048468e-15 3.692559891272053e-15 0.5166319561530754 -0.8552081650401653
111500000.0 0.4814808874628735 -0.8754571609656479 6.244423068887029e-15 3.581155694249824e-15 6.40971662071051e-15 3.675950992038791e-15 0.5133333688428697 -0.8571898696864408
112000000.0 0.4780403843324046 -0.8773384262044595 6.27216891232407e-15 3.564795411300682e-15 6.438196912944415e-15 3.659157642776288e-15 0.5100343958348318 -0.8591545878883622
112500000.0 0.47460056398645833 -0.8792018544991461 6.299724653821759e-15 3.548257878110518e-15 6.466482071128802e-15 3.6421823513546185e-15 0.5067351359110869 -0.8611023732905344
113000000.0 0.4711615283328613 -0.8810475124498921 6.3270895151923e-15 3.5315455328275922e-15 6.494571296476802e-15 3.625027620461263e-15 0.5034356870099658 -0.8630332800562743
113500000.0 0.46772337828346777 -0.8828754671372546 6.354262748023104e-15 3.514660808219774e-15 6.522463820764891e-15 3.607695947260885e-15 0.5001361462257082 -0.8649473628567135
114000000.0 0.46428621375535095 -0.8846857861096794 6.381243633410092e-15 3.4976061313494124e-15 6.5501589060591816e-15 3.590189823061602e-15 0.49683660980829497 -0.8668446768599782
114500000.0 0.46085013367212946 -0.8864785373711191 6.4080314816886016e-15 3.4803839232544856e-15 6.577655844439184e-15 3.572511732987693e-15 0.49353717316340046 -0.8687252777204302
115000000.0 0.45741523596542866 -0.8882537893687555 6.4346256321620565e-15 3.462996598636053e-15 6.604953957719288e-15 3.554664155658772e-15 0.4902379308524709 -0.8705892215679859
115500000.0 0.45398161757647365 -0.890011610980827 6.461025452828434e-15 3.445446565551936e-15 6.632052597168008e-15 3.5366495628753677e-15 0.48693897659292157 -0.8724365649975034
116000000.0 0.4505493744578111 -0.8917520715045557 6.487230340104695e-15 3.427736225116632e-15 6.658951143225113e-15 3.5184704193108946e-15 0.4836404032584525 -0.8742673650582441
116500000.0 0.44711860157515654 -0.893475240644187 6.5132397185493094e-15 3.4098679712074426e-15 6.685649005216792e-15 3.5001291822099923e-15 0.48034230287948215 -0.8760816792434076
117000000.0 0.4436893929093682 -0.8951811884991316 6.539053040582957e-15 3.391844190176773e-15 6.7121456210689775e-15 3.4816283010932173e-15 0.47704476664369455 -0.8778795654797436
117500000.0 0.44026184145854114 -0.8968699855522146 6.564669786207516e-15 3.3736672605705748e-15 6.738440457018892e-15 3.4629702174680317e-15 0.47374788489670094 -0.8796610821172366
118000000.0 0.43683603924021924 -0.8985417026580352 6.590089462723482e-15 3.355339552852913e-15 6.764533007324987e-15 3.44415736454608e-15 0.47045174714281046 -0.8814262879188703
118500000.0 0.4334120772937268 -0.9001964110314337 6.615311604445899e-15 3.3368634291366104e-15 6.7904227939753485e-15 3.425192166966697e-15 0.4671564420459122 -0.8831752420504684
119000000.0 0.42999004568261223 -0.9018341822360656 6.6403357724189095e-15 3.318241242919956e-15 6.816109366394705e-15 3.40607704052666e-15 0.4638620574304633 -0.884908004070613
119500000.0 0.4265700334972047 -0.9034550881730907 6.6651615541290646e-15 3.299475338829415e-15 6.841592301150129e-15 3.386814391916077e-15 0.46056868028258374 -0.8866246339206452
120000000.0 0.4231521288572812 -0.9050592010699691 6.689788563217438e-15 3.2805680523683367e-15 6.866871201655548e-15 3.3674066184604404e-15 0.4572763967512523 -0.8883251919147411
120500000.0 0.4197364189148373 -0.906646593469368 6.7142164391907166e-15 3.2615217096715778e-15 6.891945697875179e-15 3.347856107868767e-15 0.45398529214960726 -0.8900097387300746
121000000.0 0.4163229898569681 -0.9082173382181813 6.7384448471312874e-15 3.2423386272660637e-15 6.91681544602594e-15 3.328165237987813e-15 0.45069545095634633 -0.8916783353970543
121500000.0 0.4129119269088466 -0.909771508456662 6.7624734774065154e-15 3.223021111837175e-15 6.9414801282790425e-15 3.308336376562277e-15 0.4474069568172219 -0.8933310432896493
122000000.0 0.4095033143368053 -0.9113091776076636 6.786302045377221e-15 3.2035714600009875e-15 6.965939452460735e-15 3.2883718810010127e-15 0.44411989254663714 -0.894967924115793
122500000.0 0.40609723545151416 -0.9128304193659987 6.809930291105503e-15 3.1839919580822574e-15 6.990193151752414e-15 3.2682740981491404e-15 0.4408343401293322 -0.8965890399078724
123000000.0 0.4026937726112557 -0.9143353076879063 6.8333579790619945e-15 3.1642848818981663e-15 7.014240984390107e-15 3.2480453640660593e-15 0.43755038072216546 -0.8981944530133
123500000.0 0.39929300722529065 -0.9158239167806347 6.856584897832624e-15 3.1444524965477423e-15 7.0380827333634864e-15 3.2276880038092994e-15 0.4342680946559865 -0.8997842260851703
124000000.0 0.39589501975731767 -0.9172963210921371 6.8796108598249956e-15 3.1244970562069153e-15 7.061718206114479e-15 3.207204331224157e-15 0.4309875614375935 -0.9013584220730013
124500000.0 0.3924998897290194 -0.9187525953008818 6.9024357009744556e-15 3.104420803929183e-15 7.085147234235544e-15 3.186596648739075e-15 0.42770885975178485 -0.9029171042135602
125000000.0 0.38910769572369575 -0.9201928143057759 6.925059280449973e-15 3.084225971451798e-15 7.108369673167766e-15 3.165867247166698e-15 0.42443206746348844 -0.9044603360217768
125500000.0 0.38571851538998364 -0.9216170532162015 6.9474814803598345e-15 3.0639147790074754e-15 7.131385401898773e-15 3.1450184055106153e-15 0.4211572616199811 -0.9059881812817402
126000000.0 0.38233242544565416 -0.9230253873421679 6.969702205457356e-15 3.043489435141532e-15 7.15419432266064e-15 3.1240523907776326e-15 0.4178845184531859 -0.907500704037784
126500000.0 0.3789495016814947 -0.9244178921845778 6.991721382846571e-15 3.022952136534423e-15 7.176796360627806e-15 3.1029714577956293e-15 0.4146139133820517 -0.9089979685856561
127000000.0 0.3755698189652667 -0.9257946434256064 7.013538961688072e-15 3.0023050678296198e-15 7.199191463615109e-15 3.081777849036873e-15 0.41134552101501 -0.9104800394637779
127500000.0 0.37219345124573666 -0.9271557169191964 7.0351549129050314e-15 2.9815504014667753e-15 7.221379601776047e-15 3.0604737944467773e-15 0.40807941515250873 -0.911946981444589
128000000.0 0.3688204715567861 -0.9285011886816659 7.0565692288894775e-15 2.960690297520134e-15 7.243360767301258e-15 3.0390615112780192e-15 0.4048156687896214 -0.9133988595259792
128500000.0 0.3654509520215892 -0.9298311348824309 7.077781923208945e-15 2.939726903542119e-15 7.265134974117419e-15 3.017543203929999e-15 0.40155435411872903 -0.9148357389228106
129000000.0 0.36208496385685973 -0.9311456318348419 7.098793030313502e-15 2.9186623544120465e-15 7.286702257586506e-15 2.9959210637935396e-15 0.39829554253227406 -0.9162576850585232
129500000.0 0.3587225773771684 -0.9324447559871347 7.119602605243302e-15 2.8974987721899063e-15 7.308062674205625e-15 2.974197269100816e-15 0.39503930462558373 -0.9176647635568348
130000000.0 0.3553638619993217 -0.9337285839134946 7.140210723336659e-15 2.8762382659751736e-15 7.329216301307338e-15 2.9523739847803996e-15 0.39178571019976177 -0.9190570402335215
130500000.0 0.35200888624680826 -0.9349971923052341 7.160617479938791e-15 2.8548829317705745e-15 7.350163236760698e-15 2.9304533623174417e-15 0.38853482826464764 -0.9204345810882945
131000000.0 0.34865771775430277 -0.9362506579620847 7.180822990111199e-15 2.833434852350734e-15 7.370903598672966e-15 2.908437539618843e-15 0.38528672704183825 -0.9217974522967585
131500000.0 0.3453104232722318 -0.9374890577836015 7.200827388341846e-15 2.811896097135714e-15 7.391437525092072e-15 2.886328640883425e-15 0.38204147396777743 -0.9231457202024628
132000000.0 0.34196706867139653 -0.9387124687606803 7.22063082825615e-15 2.79026872206929e-15 7.411765173709989e-15 2.864128776477007e-15 0.37879913569690116 -0.9244794513090394
132500000.0 0.338627718947652 -0.939920967967188 7.240233482328832e-15 2.7685547695019968e-15 7.431886721566951e-15 2.8418400428123448e-15 0.37555977810484914 -0.9257987122724313
133000000.0 0.33529243822663685 -0.9411146325517066 7.259635541596738e-15 2.7467562680788144e-15 7.451802364756651e-15 2.8194645222338425e-15 0.3723234662917294 -0.9271035698932051
133500000.0 0.33196128976856015 -0.9422935397293857 7.278837215372622e-15 2.724875232631493e-15 7.471512318132486e-15 2.797004282907033e-15 0.36909026458544464 -0.9283940911089582
134000000.0 0.3286343359730335 -0.943457766773911 7.297838730960028e-15 2.702913664075407e-15 7.491016815014855e-15 2.7744613787126976e-15 0.3658602365450696 -0.9296703429868096
134500000.0 0.32531163838395444 -0.9446073910095816 7.316640333369251e-15 2.6808735493109255e-15 7.510316106899613e-15 2.7518378491456263e-15 0.36263344496428734 -0.9309323927159808
135000000.0 0.32199325769443504 -0.9457424898034974 7.335242285034454e-15 2.658756861129197e-15 7.529410463167718e-15 2.7291357192179103e-15 0.3594099518748732 -0.9321803076004666
135500000.0 0.3186792537517747 -0.9468631405578615 7.353644865532045e-15 2.636565558122311e-15 7.548300170796128e-15 2.7063569993667244e-15 0.3561898185502311 -0.9334141550517915
136000000.0 0.3153696855624779 -0.9479694207023872 7.371848371300277e-15 2.6143015845977934e-15 7.566985534069987e-15 2.6835036853665573e-15 0.3529731055089822 -0.9346340025818562
136500000.0 0.31206461129731133 -0.9490614076868181 7.389853115360176e-15 2.5919668704973275e-15 7.585466874296179e-15 2.660577758245785e-15 0.3497598725185965 -0.9358399177958714
137000000.0 0.30876408829640056 -0.9501391789735573 7.40765942703784e-15 2.56956333131969e-15 7.603744529518254e-15 2.6375811842075643e-15 0.346550178599076 -0.9370319683853787
137500000.0 0.3054681730743657 -0.9512028120304042 7.425267651688156e-15 2.5470928680478047e-15 7.621818854232842e-15 2.6145159145549535e-15 0.34334408202667815 -0.938210222121362
138000000.0 0.30217692132549356 -0.9522523843233999 7.442678150419915e-15 2.5245573670798876e-15 7.6396902191075e-15 2.591383885620237e-15 0.3401416403376869 -0.9393747468474406
138500000.0 0.29889038792894224 -0.9532879733097797 7.4598912998225e-15 2.5019587001645824e-15 7.657359010700153e-15 2.568187018698351e-15 0.33694291033222357 -0.9405256104731571
139000000.0 0.29560862695398066 -0.954309656431035 7.47690749169406e-15 2.4792987243400596e-15 7.674825631180078e-15 2.544927219984355e-15 0.3337479480780995 -0.9416628809673468
139500000.0 0.29233169166525913 -0.9553175111060803 7.493727132771283e-15 2.4565792818770148e-15 7.692090498050522e-15 2.521606380514934e-15 0.3305568089147078 -0.942786626351595
140000000.0 0.2890596345281094 -0.9563116147245241 7.51035064446077e-15 2.433802200225475e-15 7.709154043872968e-15 2.4982263761137977e-15 0.3273695474569535 -0.9438969146937828
140500000.0 0.285792507213873 -0.9572920446400502 7.526778462572084e-15 2.4109692919654102e-15 7.726016715993109e-15 2.474789067340966e-15 0.3241862175992208 -0.9449938141017153
141000000.0 0.28253036060525727 -0.9582588781638995 7.543011037052476e-15 2.388082354761013e-15 7.742678976268569e-15 2.4512962994458636e-15 0.3210068725193745 -0.9460773927168417
141500000.0 0.2792732448017159 -0.9592121925584577 7.559048831723321e-15 2.3651431713186656e-15 7.759141300798349e-15 2.4277499023241602e-15 0.31783156468279683 -0.9471477187080529
142000000.0 0.2760212091248528 -0.9601520650309473 7.574892324018368e-15 2.3421535093484764e-15 7.775404179654148e-15 2.4041516904782894e-15 0.31466034584645747 -0.9482048602655739
142500000.0 0.2727743021238497 -0.9610785727272211 7.590542004723708e-15 2.3191151215293514e-15 7.791468116613453e-15 2.3805034629815985e-15 0.31149326706301306 -0.949248885594932
143000000.0 0.26953257158091554 -0.961991792725659 7.605998377719614e-15 2.2960297454775488e-15 7.807333628894545e-15 2.3568070034460717e-15 0.3083303786849391 -0.9502798629110162
143500000.0 0.26629606451675186 -0.9628918020311666 7.621261959724217e-15 2.2728991037186174e-15 7.82300124689339e-15 2.3330640799935216e-15 0.30517173036869044 -0.9512978604322174
144000000.0 0.2630648271960412 -0.963778677569274 7.636333280039066e-15 2.2497249036627188e-15 7.838471513922453e-15 2.3092764452302608e-15 0.30201737107888893 -0.952302946374654
144500000.0 0.25983890513294744 -0.9646524961803346 7.65121288029658e-15 2.226508837583216e-15 7.85374498595149e-15 2.2854458362251255e-15 0.29886734909253826 -0.9532951889464806
145000000.0 0.2566183430966376 -0.9655133346138252 7.665901314209447e-15 2.203252582598524e-15 7.868822231350286e-15 2.2615739744908375e-15 0.2957217120032648 -0.9542746563422781
145500000.0 0.2534031851168124 -0.9663612695227438 7.680399147321995e-15 2.179957800657104e-15 7.88370383063346e-15 2.237662565968615e-15 0.2925805067255828 -0.9552414167375316
146000000.0 0.25019347448925294 -0.9671963774581038 7.69470695676349e-15 2.1566261385256e-15 7.898390376207232e-15 2.213713301015982e-15 0.2894437794991791 -0.9561955382831819
146500000.0 0.24698925378137856 -0.9680187348635305 7.708825331003516e-15 2.1332592277800243e-15 7.912882472118317e-15 2.189727854397732e-15 0.2863115758932269 -0.9571370891002692
147000000.0 0.24379056483781533 -0.9688284180699485 7.722754869609314e-15 2.1098586847999506e-15 7.927180733804855e-15 2.1657078852799492e-15 0.2831839408107134 -0.9580661372746483
147500000.0 0.24059744878597317 -0.9696255032903686 7.736496183005186e-15 2.0864261107656437e-15 7.94128578784944e-15 2.141655037227087e-15 0.2800609184927919 -0.958982750851792
148000000.0 0.23740994604163232 -0.9704100666147687 7.750049892233988e-15 2.0629630916580883e-15 7.9551982717343e-15 2.117570938201978e-15 0.27694255252315025 -0.9598869978316712
148500000.0 0.23422809631453648 -0.9711821840050704 7.76341662872067e-15 2.0394711982618386e-15 7.968918833598564e-15 2.0934572005687675e-15 0.2738288858323981 -0.9607789461637155
149000000.0 0.23105193861398965 -0.9719419312902066 7.776597034037931e-15 2.015951986170641e-15 7.98244813199776e-15 2.0693154210986883e-15 0.27071996070246995 -0.9616586637418546
149500000.0 0.22788151125446274 -0.9726893841612848 7.789591759674002e-15 1.9924069957957983e-15 7.995786835665375e-15 2.045147180978627e-15 0.26761581877104335 -0.9625262183996366
150000000.0 0.22471685186119797 -0.9734246181668403 7.802401466802533e-15 1.9688377523771644e-15 8.008935623276716e-15 2.0209540458224414e-15 0.26451650103597407 -0.9633816779054263
150500000.0 0.2215579973758195 -0.9741477087081816 7.815026826054644e-15 1.94524576599677e-15 8.021895183214912e-15 1.99673756568492e-15 0.2614220478597409 -0.964225109957682
151000000.0 0.2184049840619456 -0.9748587310348262 7.82746851729312e-15 1.9216325315950053e-15 8.034666213339112e-15 1.9724992750784007e-15 0.25833249897390737 -0.9650565821803067
151500000.0 0.21525784751079846 -0.9755577602400269 7.8397272293888e-15 1.897999528989274e-15 8.047249420754974e-15 1.948240692991929e-15 0.2552478934835904 -0.9658761621180809
152000000.0 0.21211662264681744 -0.9762448712563847 7.85180365999911e-15 1.8743482228951378e-15 8.05964552158732e-15 1.923963322912949e-15 0.2521682698719442 -0.9666839172321661
152500000.0 0.20898134373326738 -0.9769201388515516 7.863698515348812e-15 1.8506800629498053e-15 8.071855240755105e-15 1.899668652851418e-15 0.2490936660046496 -0.9674799148956906
153000000.0 0.20585204437784627 -0.9775836376240209 7.875412510012957e-15 1.8269964837380053e-15 8.083879311748593e-15 1.875358155366365e-15 0.2460241191344154 -0.9682642223894036
153500000.0 0.20272875753828865 -0.9782354419990026 7.886946366702018e-15 1.8032989048201107e-15 8.095718476408838e-15 1.8510332875947606e-15 0.2429596659054855 -0.9690369068974102
154000000.0 0.19961151552796622 -0.9788756262243837 7.898300816049283e-15 1.779588730762521e-15 8.107373484709412e-15 1.8266954912827075e-15 0.23990034235815366 -0.9697980355029778
154500000.0 0.19650035002148 -0.9795042643667775 7.909476596400416e-15 1.7558673511702258e-15 8.118845094540427e-15 1.8023461928188494e-15 0.23684618393328521 -0.9705476751844144
155000000.0 0.19339529206025047 -0.9801214303076506 7.920474453605297e-15 1.7321361407214836e-15 8.130134071494849e-15 1.777986803269994e-15 0.23379722547684123 -0.9712858928110246
155500000.0 0.19029637205809583 -0.9807271977395384 7.93129514081207e-15 1.7083964592046118e-15 8.141241188657096e-15 1.7536187184188513e-15 0.23075350124441124 -0.9720127551391327
156000000.0 0.18720361980680836 -0.981321640162339 7.941939418263435e-15 1.684649651556791e-15 8.15216722639394e-15 1.7292433188038828e-15 0.22771504490574546 -0.9727283288081817
156500000.0 0.1841170644817155 -0.9819048308796918 7.952408053095174e-15 1.6608970479048517e-15 8.162912972147692e-15 1.7048619697611569e-15 0.2246818895492925 -0.9734326803369023
157000000.0 0.18103673464723705 -0.9824768429954344 7.962701819136934e-15 1.6371399636080033e-15 8.173479220231734e-15 1.680476021468215e-15 0.22165406768673668 -0.9741258761195516
157500000.0 0.17796265826242796 -0.9830377494101383 7.972821496715251e-15 1.6133796993024457e-15 8.1838667716283e-15 1.6560868089898617e-15 0.21863161125753922 -0.9748079824222243
158000000.0 0.17489486268651322 -0.9835876228177286 7.982767872458829e-15 1.5896175409478186e-15 8.194076433788622e-15 1.6316956523258494e-15 0.21561455163347712 -0.9754790653792301
158500000.0 0.17183337468440754 -0.9841265357021746 7.992541739106035e-15 1.5658547598754443e-15 8.204109020435312e-15 1.6073038564603815e-15 0.21260291962318326 -0.9761391909895427
159000000.0 0.16877822043222665 -0.9846545603342639 8.002143895314707e-15 1.5420926128383068e-15 8.213965351367151e-15 1.5829127114134392e-15 0.2095967454766852 -0.9767884251133174
159500000.0 0.16572942552278003 -0.9851717687684481 8.011575145474126e-15 1.5183323420627436e-15 8.223646252266087e-15 1.5585234922938155e-15 0.20659605888994176 -0.9774268334684731
160000000.0 0.16268701497105512 -0.9856782328397681 8.020836299519321e-15 1.494575175301764e-15 8.233152554506597e-15 1.5341374593538685e-15 0.20360088900937717 -0.978054481627346
160500000.0 0.159651013219683 -0.9861740241608511 8.029928172747548e-15 1.4708223258900028e-15 8.242485094967335e-15 1.5097558580459155e-15 0.20061126443641153 -0.9786714350134051
161000000.0 0.15662144414438975 -0.9866592141189823 8.038851585637047e-15 1.447074992800222e-15 8.251644715845085e-15 1.485379919080228e-15 0.19762721323198842 -0.979277758898037
161500000.0 0.15359833105943277 -0.9871338738732506 8.047607363668048e-15 1.4233343607013198e-15 8.260632264471024e-15 1.4610108584845918e-15 0.19464876292109776 -0.979873518397396
162000000.0 0.1505816967230188 -0.9875980743517646 8.056196337145956e-15 1.3996016000178395e-15 8.269448593129233e-15 1.436649877665369e-15 0.19167594049729123 -0.9804587784693144
162500000.0 0.14757156334270627 -0.9880518862489417 8.06461934102685e-15 1.3758778669908814e-15 8.278094558877561e-15 1.412298163470052e-15 0.18870877242719544 -0.9810336039102843
163000000.0 0.14456795258078842 -0.9884953800228675 8.07287721474513e-15 1.3521643037404296e-15 8.286571023370735e-15 1.387956888251206e-15 0.18574728465501578 -0.9815980593524947
163500000.0 0.14157088555966024 -0.9889286258927225 8.080970802043425e-15 1.3284620383290081e-15 8.294878852685755e-15 1.3636272099318355e-15 0.1827915026070342 -0.9821522092609377
164000000.0 0.13858038286716173 -0.989351693836281 8.088900950804724e-15 1.3047721848266438e-15 8.303018917149554e-15 1.3393102720720544e-15 0.17984145119609896 -0.9826961179305738
164500000.0 0.13559646456190816 -0.9897646535874759 8.096668512886674e-15 1.2810958433771072e-15 8.310992091168968e-15 1.3150072039370894e-15 0.17689715482610718 -0.9832298494835585
165000000.0 0.1326191501785943 -0.9901675746340312 8.104274343958121e-15 1.2574341002653636e-15 8.318799253062892e-15 1.290719120566505e-15 0.17395863739647702 -0.9837534678665318
165500000.0 0.12964845873328198 -0.9905605262151598 8.111719303337818e-15 1.2337880279862123e-15 8.32644128489676e-15 1.2664471228446701e-15 0.17102592230661012 -0.984267036847967
166000000.0 0.12668440872866388 -0.9909435773193297 8.119004253835338e-15 1.21015868531408e-15 8.333919072319217e-15 1.242192297572392e-15 0.16809903246034716 -0.9847706200155768
166500000.0 0.12372701815930816 -0.9913167966820909 8.126130061594148e-15 1.186547117373913e-15 8.341233504401051e-15 1.2179557175396929e-15 0.16517799027040936 -0.9852642807737836
167000000.0 0.12077630451687857 -0.9916802527839699 8.133097595936852e-15 1.1629543557131398e-15 8.348385473476358e-15 1.1937384415996632e-15 0.16226281766283093 -0.9857480823412421
167500000.0 0.1178322847953343 -0.9920340138484236 8.13990772921262e-15 1.1393814183746629e-15 8.355375874985899e-15 1.1695415147434052e-15 0.15935353608137867 -0.986222087748426
168000000.0 0.11489497549610497 -0.9923781478398596 8.146561336646732e-15 1.1158293099708632e-15 8.362205607322673e-15 1.1453659681759732e-15 0.1564501664919619 -0.9866863598352655
168500000.0 0.11196439263324398 -0.9927127224617125 8.153059296192273e-15 1.0922990217585344e-15 8.368875571679716e-15 1.1212128193933188e-15 0.15355272938702735 -0.9871409612488465
169000000.0 0.10904055173855551 -0.9930378051545884 8.159402488383981e-15 1.0687915317147567e-15 8.375386671900029e-15 1.097083072260147e-15 0.15066124478994197 -0.987585954441163
169500000.0 0.10612346786670115 -0.9933534630944599 8.165591796194186e-15 1.0453078046136698e-15 8.381739814328739e-15 1.0729777170887392e-15 0.14777573225936352 -0.9880214016669251
170000000.0 0.10321315560027751 -0.9936597631909282 8.171628104890857e-15 1.021848792104075e-15 8.38793590766738e-15 1.0488977307185919e-15 0.14489621089359545 -0.9884473649814216
170500000.0 0.10030962905487281 -0.9939567720855382 8.177512301897778e-15 9.984154327878628e-16 8.393975862830367e-15 1.0248440765969534e-15 0.14202269933492884 -0.9888639062384388
171000000.0 0.09741290188409436 -0.9942445561501555 8.18324527665676e-15 9.750086522992439e-16 8.399860592803556e-15 1.0008177048601056e-15 0.13915521577396803 -0.9892710870882276
171500000.0 0.09452298728457517 -0.9945231814853938 8.18882792049198e-15 9.516293633847086e-16 8.405591012505e-15 9.7681955241548e-16 0.13629377795394476 -0.9896689689755305
172000000.0 0.09163989800094795 -0.9947927139191047 8.194261126476331e-15 9.282784659837155e-16 8.411168038647762e-15 9.528505430244602e-16 0.13343840317501082 -0.9900576131376537
172500000.0 0.08876364633079994 -0.9950532190049186 8.19954578929985e-15 9.049568473100794e-16 8.416592589604847e-15 9.289115873859347e-16 0.13058910829852177 -0.9904370806025949
173000000.0 0.08589424412959612 -0.9953047620208413 8.204682805140193e-15 8.816653819339903e-16 8.421865585276256e-15 9.05003583220479e-16 0.12774590975129796 -0.9908074321872231
173500000.0 0.08303170281557619 -0.995547407967903 8.209673071535075e-15 8.584049318646851e-16 8.426987946958064e-15 8.811274153552205e-16 0.1249088235298736 -0.9911687284955027
174000000.0 0.08017603337462646 -0.9957812215688608 8.214517487256791e-15 8.351763466336926e-16 8.431960597213589e-15 8.572839558092917e-16 0.1220778652047262 -0.9915210299167756
174500000.0 0.07732724636512281 -0.9960062672669554 8.219216952188681e-15 8.11980463378666e-16 8.436784459746616e-15 8.334740638798653e-16 0.11925304992449001 -0.9918643966240844
175000000.0 0.07448535192274526 -0.9962226092247132 8.223772367203601e-15 7.888181069277273e-16 8.441460459276635e-15 8.096985862287542e-16 0.11643439242015134 -0.9921988885725508
175500000.0 0.07165035976526436 -0.9964303113228052 8.228184634044345e-15 7.656900898843302e-16 8.445989521416109e-15 7.859583569695034e-16 0.11362190700922449 -0.9925245654977977
176000000.0 0.06882227919730179 -0.9966294371589526 8.232454655206035e-15 7.425972127126169e-16 8.450372572549724e-15 7.622541977550093e-16 0.11081560759991295 -0.9928414869144185
176500000.0 0.06600111911506117 -0.9968200500468807 8.23658333382045e-15 7.195402638232039e-16 8.454610539715696e-15 7.38586917865583e-16 0.1080155076952478 -0.9931497121144973
177000000.0 0.06318688801102632 -0.997002213015323 8.240571573542252e-15 6.965200196593937e-16 8.45870435048896e-15 7.149573142974375e-16 0.10522162039721018 -0.9934493001661702
177500000.0 0.06037959397863766 -0.9971759888070716 8.244420278437162e-15 6.735372447838052e-16 8.462654932866381e-15 6.913661718516112e-16 0.10243395841083264 -0.9937403099122343
178000000.0 0.05757924471693427 -0.9973414398780746 8.248130352871979e-15 6.50592691965352e-16 8.466463215153886e-15 6.67814263223257e-16 0.09965253404828354 -0.9940227999688024
178500000.0 0.054785847535168276 -0.9974986283965808 8.251702701406552e-15 6.276871022665741e-16 8.470130125855551e-15 6.443023490912771e-16 0.09687735923292738 -0.9942968287240014
179000000.0 0.05199940935738914 -0.9976476162423275 8.255138228687524e-15 6.048212051312989e-16 8.473656593564549e-15 6.208311782083032e-16 0.09410844550337061 -0.9945624543367125
179500000.0 0.049219936727000674 -0.9977884650057739 8.258437839343988e-15 5.819957184725893e-16 8.477043546856034e-15 5.974014874909812e-16 0.09134580401748263 -0.9948197347353585
180000000.0 0.04644743581128347 -0.9979212359873807 8.26160243788496e-15 5.592113487609579e-16 8.480291914181914e-15 5.740140021105121e-16 0.08858944555639872 -0.995068727616729
180500000.0 0.04368191240589225 -0.9980459901969299 8.264632928598661e-15 5.364687911128342e-16 8.483402623767447e-15 5.506694355834669e-16 0.0858393805285018 -0.9953094904448533
181000000.0 0.04092337193932098 -0.998162788352887 8.267530215453598e-15 5.137687293792704e-16 8.486376603509722e-15 5.273684898628392e-16 0.08309561897338148 -0.9955420804499077
181500000.0 0.03817181947733737 -0.9982716908818089 8.270295202001445e-15 4.911118362348231e-16 8.489214780877953e-15 5.041118554292747e-16 0.08035817056577711 -0.995766554627171
182000000.0 0.035427259727386876 -0.9983727579177892 8.272928791281669e-15 4.684987732666286e-16 8.491918082815598e-15 4.809002113825109e-16 0.07762704461949223 -0.9959829697360151
182500000.0 0.03268969704296782 -0.9984660493019457 8.275431885727926e-15 4.459301910636352e-16 8.494487435644254e-15 4.577342255329661e-16 0.07490225009129216 -0.9961913822989353
183000000.0 0.029959135427975268 -0.9985516245819465 8.277805387076186e-15 4.2340672930597537e-16 8.496923764969379e-15 4.3461455449348528e-16 0.07218379558478144 -0.9963918486006261
183500000.0 0.02723557854101245 -0.998629543011578 8.28005019627458e-15 4.0092901685443535e-16 8.49922799558773e-15 4.1154184377117055e-16 0.06947168935425324 -0.996584424687087
184000000.0 0.024519029699673837 -0.9986998635503491 8.282167213394946e-15 3.7849767184003814e-16 8.501401051396578e-15 3.8851672785933304e-16 0.0667659393085221 -0.9967691663647714
184500000.0 0.021809491884796233 -0.9987626448631333 8.284157337546062e-15 3.5611330175369383e-16 8.503443855304632e-15 3.6553983032952717e-16 0.06406655301473269 -0.9969461291997732
185000000.0 0.019106967744679286 -0.9988179453198487 8.286021466788549e-15 3.3377650353590513e-16 8.505357329144715e-15 3.426117639236197e-16 0.06137353770214555 -0.9971153685170483
185500000.0 0.0164114595992744 -0.9988658229951765 8.287760498051444e-15 3.1148786366650376e-16 8.507142393588096e-15 3.197331306459111e-16 0.05868690026590164 -0.9972769393996738
186000000.0 0.01372296944434344 -0.9989063356683112 8.289375327050361e-15 2.8924795825440685e-16 8.50879996806052e-15 2.9690452185525913e-16 0.05600664727076114 -0.9974308966881426
186500000.0 0.011041498955585271 -0.9989395408227507 8.290866848207345e-15 2.670573531273824e-16 8.51033097065989e-15 2.7412651835722435e-16 0.053332784954825095 -0.9975772949796936
187000000.0 0.008367049492733595 -0.9989654956461179 8.292235954572254e-15 2.4491660392177102e-16 8.511736318075637e-15 2.5139969049616936e-16 0.05066531923322763 -0.9977161886276777
187500000.0 0.005699622103619601 -0.9989842570300174 8.293483537745773e-15 2.228262561721978e-16 8.51301692550963e-15 2.287245982473453e-16 0.04800425570180976 -0.9978476317409554
188000000.0 0.0030392175282070765 -0.9989958815699274 8.294610487804005e-15 2.0078684540120773e-16 8.514173706598816e-15 2.061017913088875e-16 0.045349599640767416 -0.9979716781833317
188500000.0 0.0003858362025948937 -0.999000425565122 8.295617693224567e-15 1.7879889720884295e-16 8.515207573339334e-15 1.8353180919378326e-16 0.04270135601827851 -0.9980883815730222
189000000.0 -0.002260521737012345 -0.9989979450186268 8.296506040814262e-15 1.5686292736213545e-16 8.516119436012289e-15 1.6101518132172186e-16 0.04005952949410374 -0.9981977952821509
189500000.0 -0.004899856450363512 -0.9989884956372077 8.297276415638276e-15 1.349794418844763e-16 8.516910203111052e-15 1.3855242711082897e-16 0.037424124423165735 -0.9982999724362849
190000000.0 -0.007532168389252423 -0.9989721328313883 8.297929700950829e-15 1.1314893714489527e-16 8.517580781270118e-15 1.1614405606932052e-16 0.03479514485910516 -0.9983949659139945
190500000.0 -0.010157458293640986 -0.9989489117155002 8.298466778127374e-15 9.137189994718376e-17 8.518132075195454e-15 9.379056788696315e-17 0.03217259455781136 -0.9984828283464497
191000000.0 -0.01277572718781191 -0.9989188871077606 8.298888526598201e-15 6.964880761888196e-17 8.51856498759639e-15 7.149245252644038e-17 0.029556476980930974 -0.9985636121170457
191500000.0 -0.01538697637655321 -0.9988821135303838 8.299195823783561e-15 4.79801281000945e-17 8.51888041911901e-15 4.9250190314508195e-17 0.026946795299349752 -0.9986373693610575
192000000.0 -0.0179912074413762 -0.9988386452097165 8.299389545030163e-15 2.636632003214358e-17 8.519079268280958e-15 2.706425203299507e-17 0.02434355239665731 -0.9987041519653258
192500000.0 -0.020588422236759805 -0.9987885360764048 8.29947056354912e-15 4.807832846011834e-18 8.519162431407772e-15 4.935099009581815e-18 0.021746750872577915 -0.9987640115679728
193000000.0 -0.0231786228864323 -0.9987318397655885 8.299439750355308e-15 -1.6694893149413415e-17 8.519130802570598e-15 -1.713681679160331e-17 0.019156393046386118 -0.9988169995581453
193500000.0 -0.02576181177967835 -0.9986686096171214 8.299297974208086e-15 -3.814142667928916e-17 8.518985273525357e-15 -3.9151052679623086e-17 0.016572480960294584 -0.9988631670757859
194000000.0 -0.028337991567679043 -0.9985988986758191 8.299046101553371e-15 -5.953134541502005e-17 8.518726733653314e-15 -6.110717514659518e-17 0.013995016382817133 -0.9989025650114336
194500000.0 -0.030907165159886396 -0.998522759691734 8.298684996467137e-15 -8.086423588671191e-17 8.51835606990303e-15 -8.300475977783097e-17 0.01142400081211025 -0.9989352440060529
195000000.0 -0.03346933572042357 -0.9984402451204542 8.298215520600146e-15 -1.0213969339585088e-16 8.517874166733678e-15 -1.0484339116221137e-16 0.00885943547928676 -0.9989612544508852
195500000.0 -0.03602450666451669 -0.9983514071234294 8.297638533124098e-15 -1.233573219282499e-16 8.517281906059734e-15 -1.266226628028217e-16 0.006301321351710164 -0.9989806464873319
196000000.0 -0.03857268165496351 -0.9982562975683189 8.296954890679e-15 -1.4451673406730032e-16 8.516580167196972e-15 -1.483421770279055e-16 0.003749659136260973 -0.9989934700068606
196500000.0 -0.041113864598624233 -0.9981549680293673 8.296165447321878e-15 -1.656175509074841e-16 8.515769826809811e-15 -1.7000154490209407e-16 0.0012044492825789173 -0.9989997746509374
197000000.0 -0.043648059642949086 -0.9980474697878002 8.295271054476749e-15 -1.8665940196818848e-16 8.514851758859956e-15 -1.9160038613793602e-16 -0.0013343080137157449 -0.9989996098109862
197500000.0 -0.04617527117253419 -0.9979338538322459 8.294272560885795e-15 -2.0764192510783345e-16 8.513826834556303e-15 -2.1313832900774694e-16 -0.0038666128078286826 -0.9989930246283693
198000000.0 -0.04869550380570855 -0.9978141708591786 8.293170812561875e-15 -2.2856476643831943e-16 8.512695922306161e-15 -2.3461501025580527e-16 -0.006392465402620883 -0.9989800679943958
198500000.0 -0.05120876239115075 -0.997688471273383 8.291966652742154e-15 -2.4942758023978924e-16 8.511459887667683e-15 -2.56030075010843e-16 -0.008911866345461383 -0.9989607885503514
199000000.0 -0.05371505200453655 -0.9975568051884429 8.290660921842998e-15 -2.702300288757417e-16 8.510119593303548e-15 -2.7738317669892285e-16 -0.01142481642510589 -0.9989352346875535
199500000.0 -0.05621437794521815 -0.9974192224272488 8.28925445741605e-15 -2.9097178270848553e-16 8.508675898935887e-15 -2.9867397695665184e-16 -0.013931316668597458 -0.9989034545474273
200000000.0 -0.0587067457329309 -0.9972757725225275 8.287748094105463e-15 -3.116525200149534e-16 8.50712966130237e-15 -3.1990214554475947e-16 -0.016431368338195366 -0.9988654960216072
