! Created with skrf 2.0.1 (http://scikit-rf.org).
# Hz S RI R 50.0 
!freq ReS11 ImS11
!
500000.0 0.9999859392547618 -0.005302951326554175
1000000.0 0.9999437582052495 -0.01060567896748329
1500000.0 0.9998734604098202 -0.01590795926861239
2000000.0 0.9997750517982344 -0.021209568638657406
2500000.0 0.9996485406704065 -0.026510283580647446
3000000.0 0.9994939376946557 -0.031809880723319174
3500000.0 0.9993112559054552 -0.03710813685247413
4000000.0 0.9991005107006877 -0.04240482894228968
4500000.0 0.9988617198384019 -0.04769973418657453
5000000.0 0.9985949034330726 -0.05299263002995931
5500000.0 0.9983000839513694 -0.05828329419901349
6000000.0 0.99797728620743 -0.06357150473327906
6500000.0 0.9976265373576455 -0.06885704001621235
7000000.0 0.9972478668949559 -0.07413967880602462
7500000.0 0.9968413066426589 -0.07941920026641244
8000000.0 0.9964068907477367 -0.08469538399716947
8500000.0 0.9959446556736993 -0.08996801006466984
9000000.0 0.9954546401929513 -0.09523685903221514
9500000.0 0.9949368853786816 -0.10050171199023614
10000000.0 0.9943914345962822 -0.1057623505863401
10500000.0 0.9938183334942972 -0.11101855705519574
11000000.0 0.9932176299949069 -0.11627011424824694
11500000.0 0.9925893742839487 -0.12151680566324673
12000000.0 0.9919336188004827 -0.12675841547360397
12500000.0 0.9912504182259009 -0.13199472855753303
13000000.0 0.9905398294725877 -0.13722553052700004
13500000.0 0.9898019116721365 -0.14245060775645654
14000000.0 0.9890367261631223 -0.14766974741135275
14500000.0 0.9882443364784415 -0.1528827374764231
15000000.0 0.9874248083322181 -0.15808936678373586
15500000.0 0.9865782096062851 -0.16328942504049948
16000000.0 0.9857046103362448 -0.1684827028566183
16500000.0 0.9848040826971122 -0.1736689917719897
17000000.0 0.9838767009885482 -0.17884808428353616
17500000.0 0.9829225416196896 -0.18401977387196503
18000000.0 0.981941683093579 -0.18918385502824833
18500000.0 0.9809342059911998 -0.19434012327981667
19000000.0 0.979900192955128 -0.19948837521645998
19500000.0 0.9788397286727988 -0.20462840851592906
20000000.0 0.977752899859401 -0.20976002196923063
20500000.0 0.9766397952404026 -0.21488301550561084
21000000.0 0.9755005055337125 -0.21999719021721978
21500000.0 0.9743351234314891 -0.22510234838345225
22000000.0 0.9731437435815992 -0.2301982934949581
22500000.0 0.9719264625687348 -0.23528483027731698
23000000.0 0.9706833788951952 -0.2403617647143718
23500000.0 0.9694145929613407 -0.24542890407121523
24000000.0 0.9681202070457269 -0.25048605691682524
24500000.0 0.9668003252849215 -0.2555330331463425
25000000.0 0.9654550536530202 -0.2605696440029879
25500000.0 0.9640844999408583 -0.26559570209961153
26000000.0 0.9626887737349329 -0.2706110214398725
26500000.0 0.9612679863960424 -0.27561541743904316
27000000.0 0.9598222510376456 -0.2806087069444328
27500000.0 0.9583516825039553 -0.2855907082554293
28000000.0 0.9568563973477687 -0.29056124114315246
28500000.0 0.9553365138080439 -0.29552012686971657
29000000.0 0.9537921517872328 -0.300467188207099
29500000.0 0.9522234328283743 -0.30540224945561
30000000.0 0.950630480091957 -0.31032513646196197
30500000.0 0.9490134183325616 -0.31523567663693525
31000000.0 0.9473723738752876 -0.320133698972636
31500000.0 0.9457074745919746 -0.32501903405934524
32000000.0 0.9440188498772251 -0.32989151410195616
32500000.0 0.9423066306242377 -0.33475097293599704
33000000.0 0.9405709492004571 -0.33959724604323716
33500000.0 0.9388119394230524 -0.3444301705668758
34000000.0 0.9370297365342258 -0.34924958532631
34500000.0 0.9352244771763678 -0.3540553308314809
35000000.0 0.9333962993670599 -0.3588472492967979
35500000.0 0.9315453424739353 -0.363625184654637
36000000.0 0.9296717471894088 -0.36838898256841507
36500000.0 0.9277756555052787 -0.37313849044523695
37000000.0 0.9258572106872125 -0.3778735574481159
37500000.0 0.9239165572491223 -0.3825940345077661
38000000.0 0.9219538409274395 -0.3872997743339671
38500000.0 0.919969208655297 -0.3919906314265006
39000000.0 0.9179628085366244 -0.39666646208565765
39500000.0 0.9159347898201665 -0.4013271244223187
40000000.0 0.9138853028734322 -0.40597247836760436
40500000.0 0.9118144991565819 -0.4106023856820998
41000000.0 0.9097225311962603 -0.41521670996465065
41500000.0 0.9076095525593852 -0.4198153166607341
42000000.0 0.9054757178268943 -0.42439807307040234
42500000.0 0.9033211825674645 -0.42896484835580345
43000000.0 0.9011461033112073 -0.4335155135482776
43500000.0 0.8989506375233477 -0.438049941555032
44000000.0 0.8967349435778953 -0.4425680071653944
44500000.0 0.8944991807313174 -0.4470695870566485
45000000.0 0.8922435090962131 -0.45155455979945136
45500000.0 0.8899680896150075 -0.45602280586283583
46000000.0 0.8876730840336651 -0.46047420761880015
46500000.0 0.8853586548754284 -0.46490864934648407
47000000.0 0.8830249654145972 -0.46932601723593964
47500000.0 0.8806721796503465 -0.4737261993914923
48000000.0 0.8783004622805954 -0.4781090858346999
48500000.0 0.8759099786759319 -0.4824745685069097
49000000.0 0.8735008948535999 -0.48682254127141683
49500000.0 0.8710733774515568 -0.4911528999152277
50000000.0 0.8686275937026064 -0.49546554215043
50500000.0 0.8661637114086146 -0.4997603676151743
51000000.0 0.8636818989148133 -0.5040372778742686
51500000.0 0.8611823250841998 -0.5082961764193898
52000000.0 0.8586651592720388 -0.5125369686689185
52500000.0 0.8561305713004692 -0.5167595619673934
53000000.0 0.8535787314332252 -0.5209638655845968
53500000.0 0.8510098103504776 -0.5251497907142726
54000000.0 0.8484239791237977 -0.5293172504724756
54500000.0 0.8458214091912546 -0.5334661598955648
55000000.0 0.8432022723326443 -0.5375964359378371
55500000.0 0.8405667406448649 -0.5417079974688102
56000000.0 0.8379149865174345 -0.5458007652701559
56500000.0 0.8352471826081632 -0.5498746620322906
57000000.0 0.8325635018189812 -0.5539296123506263
57500000.0 0.8298641172719293 -0.557965542721485
58000000.0 0.8271492022853151 -0.561982381537684
58500000.0 0.8244189303500411 -0.565980059083793
59000000.0 0.8216734751061104 -0.5699585075310732
59500000.0 0.8189130103193092 -0.5739176609320952
60000000.0 0.8161377098580781 -0.5778574552150484
60500000.0 0.8133477476705709 -0.5817778281777414
61000000.0 0.8105432977619057 -0.5856787194812995
61500000.0 0.8077245341716153 -0.5895600706435666
62000000.0 0.8048916309512966 -0.5934218250322123
62500000.0 0.8020447621424681 -0.5972639278575527
63000000.0 0.7991841017546314 -0.6010863261650884
63500000.0 0.79630982374355 -0.6048889688277644
64000000.0 0.79342210198974 -0.6086718065379593
64500000.0 0.7905211102771806 -0.6124347917992035
65000000.0 0.7876070222722484 -0.6161778789176402
65500000.0 0.7846800115028741 -0.6199010239932254
66000000.0 0.7817402513379292 -0.623604184910678
66500000.0 0.7787879149668434 -0.6272873213301836
67000000.0 0.7758231753794539 -0.6309503946778552
67500000.0 0.7728462053460942 -0.6345933681359606
68000000.0 0.769857177397918 -0.638216206632917
68500000.0 0.7668562638074674 -0.641818876833061
69000000.0 0.7638436365694807 -0.6454013471261979
69500000.0 0.7608194673819504 -0.6489635876169366
70000000.0 0.7577839276274236 -0.6525055701138158
70500000.0 0.7547371883545555 -0.656027268118224
71000000.0 0.751679420259913 -0.6595286568131222
71500000.0 0.7486107936700297 -0.6630097130515724
72000000.0 0.7455314785237173 -0.6664704153450777
72500000.0 0.7424416443546317 -0.6699107438517394
73000000.0 0.7393414602740971 -0.6733306803642366
73500000.0 0.7362310949541878 -0.6767302082976331
74000000.0 0.7331107166110696 -0.6801093126770168
74500000.0 0.7299804929886029 -0.6834679801249771
75000000.0 0.7268405913422067 -0.6868061988489265
75500000.0 0.7236911784229844 -0.6901239586282687
76000000.0 0.7205324204621135 -0.6934212508014216
76500000.0 0.7173644831555 -0.6966980682526991
77000000.0 0.7141875316486946 -0.699954405399055
77500000.0 0.7110017305220766 -0.7031902581766987
78000000.0 0.7078072437763004 -0.7064056240275814
78500000.0 0.704604234818009 -0.7096005018857641
79000000.0 0.7013928664458119 -0.7127748921636673
79500000.0 0.6981733008365303 -0.7159287967382119
80000000.0 0.6949456995317054 -0.7190622189368517
80500000.0 0.6917102234243736 -0.7221751635235062
81000000.0 0.6884670327461082 -0.725267636684396
81500000.0 0.6852162870543225 -0.7283396460137868
82000000.0 0.6819581452198408 -0.7313912004996467
82500000.0 0.6786927654147322 -0.7344223105092212
83000000.0 0.6754203051004083 -0.7374329877745308
83500000.0 0.6721409210159832 -0.7404232453777945
84000000.0 0.6688547691668968 -0.7433930977367877
84500000.0 0.6655620048137991 -0.7463425605901332
85000000.0 0.6622627824616955 -0.7492716509825346
85500000.0 0.6589572558493513 -0.752180387249955
86000000.0 0.6556455779389563 -0.7550687890047451
86500000.0 0.6523279009060451 -0.7579368771207221
87000000.0 0.6490043761296769 -0.7607846737182137
87500000.0 0.6456751541828679 -0.7636122021490552
88000000.0 0.6423403848232803 -0.7664194869815618
88500000.0 0.6390002169841623 -0.7692065539854647
89000000.0 0.6356547987655418 -0.7719734301168263
89500000.0 0.6323042774256677 -0.7747201435029323
90000000.0 0.6289487993727035 -0.777446723427165
90500000.0 0.6255885101566622 -0.7801532003138664
91000000.0 0.6222235544615946 -0.7828396057131876
91500000.0 0.6188540760980138 -0.785505972285936
92000000.0 0.6154802179955681 -0.7881523337884169
92500000.0 0.6121021221959491 -0.790778725057279
93000000.0 0.6087199298460432 -0.7933851819943629
93500000.0 0.6053337811913164 -0.79597174155156
94000000.0 0.6019438155694367 -0.798538441715681
94500000.0 0.5985501714041266 -0.8010853214933417
95000000.0 0.5951529861992502 -0.8036124208958663
95500000.0 0.5917523965331261 -0.8061197809242135
96000000.0 0.5883485380530694 -0.8086074435539262
96500000.0 0.5849415454701581 -0.8110754517201115
97000000.0 0.5815315525542217 -0.8135238493024505
97500000.0 0.5781186921290519 -0.8159526811102432
98000000.0 0.5747030960678302 -0.8183619928674902
98500000.0 0.5712848952887727 -0.8207518311980158
99000000.0 0.567864219750989 -0.8231222436106319
99500000.0 0.5644411984505527 -0.8254732784843515
100000000.0 0.5610159594167812 -0.8278049850536469
100500000.0 0.5575886297087232 -0.8301174133937611
101000000.0 0.5541593354118505 -0.8324106144060733
101500000.0 0.550728201634953 -0.8346846398035194
102000000.0 0.547295352507232 -0.8369395420960731
102500000.0 0.5438609111755957 -0.8391753745762868
103000000.0 0.5404249998021419 -0.8413921913048962
103500000.0 0.5369877395618441 -0.8435900470964917
104000000.0 0.5335492506404177 -0.8457689975052579
104500000.0 0.5301096522323819 -0.8479290988107808
105000000.0 0.5266690625393026 -0.8500704080039323
105500000.0 0.5232275987682199 -0.852192982772824
106000000.0 0.5197853771302559 -0.8542968814888402
106500000.0 0.5163425128394002 -0.85638216319275
107000000.0 0.5128991201114719 -0.8584488875808962
107500000.0 0.5094553121632519 -0.8604971149914702
108000000.0 0.5060112012117892 -0.8625269063908687
108500000.0 0.5025668984738721 -0.8645383233601347
109000000.0 0.4991225141656657 -0.8665314280814891
109500000.0 0.49567815750251343 -0.8685062833249473
110000000.0 0.49223393669889526 -0.870462952435029
110500000.0 0.488789958968549 -0.8724014993175585
111000000.0 0.485346330524741 -0.8743219884265572
111500000.0 0.48190315658069394 -0.8762244847512326
112000000.0 0.47846054135016136 -0.878109053803063
112500000.0 0.47501858804815267 -0.8799757616029772
113000000.0 0.47157739889180056 -0.8818246746686348
113500000.0 0.46813707510137226 -0.8836558600018065
114000000.0 0.46469771690142087 -0.8854693850758517
114500000.0 0.4612594235220724 -0.8872653178233021
115000000.0 0.45782229320045104 -0.8890437266235447
115500000.0 0.4543864231822322 -0.8908046802906107
116000000.0 0.4509519097233303 -0.8925482480610677
116500000.0 0.44751884809171005 -0.8942744995820182
117000000.0 0.44408733256932453 -0.895983504899204
117500000.0 0.4406574564541768 -0.8976753344452186
118000000.0 0.4372293120624986 -0.8993500590278259
118500000.0 0.43380299073104894 -0.9010077498183894
119000000.0 0.43037858281952723 -0.9026484783404086
119500000.0 0.42695617771309924 -0.9042723164581676
120000000.0 0.42353586382503333 -0.9058793363654911
120500000.0 0.4201177285994435 -0.9074696105746153
121000000.0 0.4167018585141416 -0.9090432119051658
121500000.0 0.41328833908358703 -0.9106002134732508
122000000.0 0.4098772548619441 -0.9121406886806646
122500000.0 0.4064686894462313 -0.9136647112042049
123000000.0 0.403062725479573 -0.9151723549851024
123500000.0 0.39965944465453995 -0.9166636942185638
124000000.0 0.3962589277165852 -0.918138803343428
124500000.0 0.39286125446756753 -0.9195977570319368
125000000.0 0.3894665037693619 -0.9210406301796189
125500000.0 0.38607475354755794 -0.9224674978952877
126000000.0 0.38268608079523597 -0.9238784354911538
126500000.0 0.3793005615768299 -0.9252735184730522
127000000.0 0.37591827103206366 -0.9266528225307814
127500000.0 0.37253928337996556 -0.9280164235285611
128000000.0 0.36916367192295857 -0.9293643974955991
128500000.0 0.36579150905102087 -0.9306968206167767
129000000.0 0.36242286624591663 -0.9320137692234457
129500000.0 0.35905781408549636 -0.9333153197843402
130000000.0 0.355696422248061 -0.9346015488966029
130500000.0 0.3523387595167923 -0.9358725332769244
131000000.0 0.348984893784244 -0.9371283497527966
131500000.0 0.34563489205689346 -0.9383690752538789
132000000.0 0.3422888204597505 -0.9395947868034777
132500000.0 0.3389467442410253 -0.9408055615101396
133000000.0 0.33560872777684636 -0.9420014765593558
133500000.0 0.3322748345760355 -0.9431826092053798
134000000.0 0.3289451272849294 -0.9443490367631563
134500000.0 0.3256196676922538 -0.9455008366003629
135000000.0 0.32229851673404125 -0.9466380861295605
135500000.0 0.31898173449859607 -0.9477608628004572
136000000.0 0.31566938023150326 -0.9488692440922819
136500000.0 0.31236151234067744 -0.9499633075062662
137000000.0 0.30905818840145294 -0.9510431305582371
137500000.0 0.305759465161712 -0.9521087907713193
138000000.0 0.3024653985470507 -0.9531603656687437
138500000.0 0.29917604366597816 -0.9541979327667676
139000000.0 0.29589145481515017 -0.9552215695676968
139500000.0 0.29261168548463534 -0.9562313535530201
140000000.0 0.2893367883632104 -0.9572273621766475
140500000.0 0.28606681534368544 -0.9582096728582538
141000000.0 0.28280181752825573 -0.9591783629767276
141500000.0 0.27954184523387915 -0.960133509863726
142000000.0 0.27628694799767833 -0.9610751907973322
142500000.0 0.273037174582366 -0.9620034829958146
143000000.0 0.26979257298169185 -0.962918463611493
143500000.0 0.2665531904259075 -0.9638202097247026
144000000.0 0.263319073387254 -0.9647087983378602
144500000.0 0.26009026758546167 -0.9655843063696318
145000000.0 0.2568668179932715 -0.9664468106492006
145500000.0 0.25364876884196613 -0.9672963879106314
146000000.0 0.25043616362691823 -0.9681331147873372
146500000.0 0.24722904511314803 -0.9689570678066397
147000000.0 0.24402745534089415 -0.9697683233844299
147500000.0 0.24083143563119266 -0.9705669578199222
148000000.0 0.237641026591465 -0.9713530472905074
148500000.0 0.23445626812111417 -0.9721266678466959
149000000.0 0.23127719941712468 -0.9728878954071594
149500000.0 0.22810385897967098 -0.9736368057538614
150000000.0 0.22493628461772758 -0.9743734745272846
150500000.0 0.22177451345468144 -0.9750979772217453
151000000.0 0.21861858193394923 -0.9758103891808025
151500000.0 0.2154685258245915 -0.976510785592754
152000000.0 0.2123243802269306 -0.9771992414862232
152500000.0 0.20918617957816332 -0.9778758317258344
153000000.0 0.20605395765797516 -0.9785406310079748
153500000.0 0.20292774759414806 -0.9791937138566433
154000000.0 0.19980758186816713 -0.9798351546193856
154500000.0 0.19669349232081923 -0.9804650274633153
155000000.0 0.19358551015778883 -0.9810834063712159
155500000.0 0.19048366595524371 -0.9816903651377307
156000000.0 0.18738798966541675 -0.9822859773656314
156500000.0 0.1842985106221752 -0.982870316462171
157000000.0 0.1812152575465848 -0.9834434556355158
157500000.0 0.17813825855245954 -0.9840054678912599
158000000.0 0.17506754115190457 -0.9845564260290144
158500000.0 0.17200313226084452 -0.985096402639081
159000000.0 0.16894505820454067 -0.9856254700991977
159500000.0 0.16589334472309467 -0.9861437005713644
160000000.0 0.16284801697693932 -0.9866511659987426
160500000.0 0.1598090995523134 -0.9871479381026325
161000000.0 0.15677661646672178 -0.9876340883795204
161500000.0 0.15375059117438122 -0.9881096880982032
162000000.0 0.15073104657164643 -0.9885748082969829
162500000.0 0.14771800500242316 -0.9890295197809335
163000000.0 0.1447114882635593 -0.9894738931192404
163500000.0 0.14171151761022208 -0.989907998642605
164000000.0 0.13871811376125176 -0.9903319064407247
164500000.0 0.1357312969045003 -0.9907456863598362
165000000.0 0.13275108670214694 -0.9911494080003272
165500000.0 0.1297775022959948 -0.9915431407144185
166000000.0 0.1268105623127458 -0.9919269536039057
166500000.0 0.12385028486925533 -0.9923009155179714
167000000.0 0.1208966875777626 -0.9926650950510574
167500000.0 0.11794978755110135 -0.9930195605408033
168000000.0 0.11500960140788574 -0.9933643800660458
168500000.0 0.11207614527767389 -0.99369962144488
169000000.0 0.10914943480610621 -0.9940253522327827
169500000.0 0.10622948516002331 -0.9943416397207935
170000000.0 0.10331631103255358 -0.9946485509337579
170500000.0 0.10040992664818256 -0.9949461526286267
171000000.0 0.09751034576778989 -0.9952345112928139
171500000.0 0.09461758169366827 -0.9955136931426116
172000000.0 0.09173164727450896 -0.9957837641216615
172500000.0 0.0888525549103676 -0.9960447898994805
173000000.0 0.08598031655759857 -0.9962968358700408
173500000.0 0.08311494373376441 -0.9965399671504065
174000000.0 0.0802564475225187 -0.996774248579419
174500000.0 0.07740483857846091 -0.9969997447164379
175000000.0 0.07456012713196244 -0.9972165198401326
175500000.0 0.07172232299396529 -0.9974246379473234
176000000.0 0.06889143556075386 -0.9976241627518745
176500000.0 0.06606747381869721 -0.9978151576836342
177000000.0 0.06325044634896106 -0.9979976858874259
177500000.0 0.060440361332193875 -0.9981718102220849
178000000.0 0.05763722655318178 -0.9983375932595432
178500000.0 0.05484104940547496 -0.9984950972839607
179000000.0 0.0520518368959842 -0.9986443842909015
179500000.0 0.04926959564954875 -0.9987855159865556
180000000.0 0.04649433191347192 -0.998918553787004
180500000.0 0.04372605156202977 -0.9990435588175295
181000000.0 0.040964760100948766 -0.9991605919119667
181500000.0 0.03821046267185153 -0.9992697136120974
182000000.0 0.035463164056673435 -0.9993709841670857
182500000.0 0.03272286868204984 -0.9994644635329548
183000000.0 0.02998958062367118 -0.9995502113721032
183500000.0 0.02726330361060779 -0.9996282870528604
184000000.0 0.024544041029603652 -0.9996987496490817
184500000.0 0.0218317959293396 -0.999761657939781
185000000.0 0.019126571024667176 -0.9998170704088015
185500000.0 0.016428368700807952 -0.9998650452445222
186000000.0 0.01373719101752473 -0.9999056403396013
186500000.0 0.01105303971326062 -0.9999389132907553
187000000.0 0.008375916209247831 -0.9999649213985736
187500000.0 0.005705821613582627 -0.9999837216673648
188000000.0 0.003042756725272759 -0.9999953708050408
188500000.0 0.0003867220382511451 -0.9999999252230297
189000000.0 -0.0022622822546414308 -0.999997441036226
189500000.0 -0.004904256257703634 -0.9999879740629677
190000000.0 -0.007539200368453577 -0.9999715798250489
190500000.0 -0.010167115273739234 -0.9999483135477606
191000000.0 -0.012788001945881285 -0.9999182301599627
191500000.0 -0.015401861638844348 -0.999881384294186
192000000.0 -0.018008695884443475 -0.9998378302867629
192500000.0 -0.020608506488578475 -0.9997876221779857
193000000.0 -0.023201295527502094 -0.999730813712294
193500000.0 -0.02578706534411625 -0.9996674583384907
194000000.0 -0.02836581854430154 -0.9995976092099819
194500000.0 -0.03093755799327906 -0.999521319185045
195000000.0 -0.03350228681199941 -0.9994386408271227
195500000.0 -0.036060008373564455 -0.9993496264051428
196000000.0 -0.03861072629968295 -0.9992543278938605
196500000.0 -0.04115444445715155 -0.9991527969742282
197000000.0 -0.04369116695437029 -0.9990450850337863
197500000.0 -0.046220898137888 -0.9989312431670795
198000000.0 -0.048743642588977405 -0.9988113221760945
198500000.0 -0.05125940512024209 -0.9986853725707207
199000000.0 -0.053768190772252034 -0.9985534445692322
199500000.0 -0.05627000481021228 -0.9984155880987929
200000000.0 -0.05876485272065846 -0.9982718527959804
